15
step 0  E = -12.72309433 Ha
C      -3.1552186131      1.5639525371      0.0292362194
C      -1.8685612380      0.6304097522      0.1202473600
H      -0.7664892212      3.5130695146     -1.0241138476
H      -2.9754039984      3.5873398555      1.2248259215
H      -3.0791302326      3.6071565242     -0.5211673451
C      -0.5972909124      1.5556003556     -0.2885872613
H      -1.8548469841      0.0029328662      1.0009187689
H      -1.8878363201     -0.0145290404     -0.7479387524
C      -1.0812089709      3.0691677196     -0.0913311276
H      -0.0083582395      1.3961492239      0.6034126683
H       0.0244516755      1.3319385777     -1.1456130028
C      -2.6549093689      3.0818344304      0.3253784404
H      -0.6517970014      3.6433980678      0.7196714478
H      -3.8125992221      1.3521686014     -0.8019292326
H      -3.7004351643      1.3851172609      0.9462644116
15
step 1  E = -12.74036562 Ha  |g|max = 0.054074
C      -3.1478268500      1.5738749128      0.1078404343
C      -1.8684397427      0.6344539008      0.0364299168
H      -0.7894385416      3.5329318199     -1.0250874399
H      -2.9648984338      3.5738291473      1.2292085114
H      -3.0895252955      3.6217410943     -0.5144379974
C      -0.6058282741      1.5581664777     -0.1883676702
H      -1.8423438829      0.0161312759      1.0043224472
H      -1.9007209992     -0.0304612286     -0.7433017906
C      -1.0907390866      3.0685730100     -0.0798354934
H       0.0148538331      1.3946799166      0.5987077657
H       0.0066862266      1.3314410530     -1.1493398038
C      -2.6459569116      3.0654711473      0.2195429982
H      -0.6280767751      3.6299109583      0.7177408605
H      -3.8037954073      1.3645894633     -0.8066475243
H      -3.7135836723      1.3703732991      0.9424994494
15
step 2  E = -12.75252820 Ha  |g|max = 0.062067
C      -3.1457247179      1.5676828722      0.0549227132
C      -1.8718627176      0.6410938883      0.0889309422
H      -0.8031291919      3.5370333027     -1.0172883004
H      -2.9454385004      3.5494793350      1.1932442524
H      -3.1157803817      3.6506640196     -0.5507233227
C      -0.6111146554      1.5631865778     -0.2307533927
H      -1.8346670487      0.0381004804      0.9752161280
H      -1.9105699931     -0.0624870301     -0.7792580008
C      -1.0819154368      3.0719108928     -0.0869949910
H       0.0561943942      1.3837994648      0.6417405056
H      -0.0224547954      1.3404096287     -1.1177974536
C      -2.6429241823      3.0664480529      0.2622325561
H      -0.6184288649      3.6243591033      0.7186243487
H      -3.7839211705      1.3780373711     -0.7807295728
H      -3.7378965514      1.3559882883      0.9779082476
15
step 3  E = -12.76327073 Ha  |g|max = 0.027096
C      -3.1554095693      1.5679814560      0.1075888355
C      -1.8709175772      0.6259118241      0.0360132211
H      -0.8128490122      3.5462576816     -1.0191224891
H      -2.9374114639      3.5397799226      1.1906578506
H      -3.1137153732      3.6479426426     -0.5395364571
C      -0.5933139568      1.5589567300     -0.1784190345
H      -1.8281601726      0.0415117139      0.9815797114
H      -1.9155707585     -0.0556878014     -0.7634609838
C      -1.0848326842      3.0719958863     -0.0809143328
H       0.0542928282      1.3860937632      0.6273748268
H      -0.0336907916      1.3411700082     -1.1174061514
C      -2.6526204376      3.0784087144      0.2148325821
H      -0.6085038541      3.6185261306      0.7178362025
H      -3.7843459163      1.3828949352     -0.7894514446
H      -3.7325850746      1.3539626413      0.9617023198
15
step 4  E = -12.76678427 Ha  |g|max = 0.031293
C      -3.1500714661      1.5691947412      0.0811299750
C      -1.8699633764      0.6348729193      0.0611325428
H      -0.8214406349      3.5504527566     -1.0160247842
H      -2.9259904838      3.5278643967      1.1735681074
H      -3.1268442248      3.6614107601     -0.5554128052
C      -0.6022597365      1.5597928439     -0.1892278452
H      -1.8223217563      0.0526891996      0.9655415232
H      -1.9223740334     -0.0710422785     -0.7804807349
C      -1.0846121074      3.0708954280     -0.0821566500
H       0.0746963950      1.3806377553      0.6458012602
H      -0.0492142736      1.3462089335     -1.1015477621
C      -2.6491677502      3.0708403447      0.2246764938
H      -0.6011414539      3.6152437563      0.7186365917
H      -3.7743275172      1.3913288105     -0.7750957382
H      -3.7446013952      1.3453158820      0.9787344791
15
step 5  E = -12.76967161 Ha  |g|max = 0.014593
C      -3.1545804962      1.5671570586      0.1075837267
C      -1.8715742397      0.6272979082      0.0346736822
H      -0.8281750619      3.5547703372     -1.0151593001
H      -2.9200922338      3.5217987432      1.1712723461
H      -3.1274013243      3.6609985914     -0.5520901909
C      -0.5942835631      1.5594133010     -0.1639567748
H      -1.8174874959      0.0543692203      0.9687428651
H      -1.9257877831     -0.0665157583     -0.7723072127
C      -1.0844770478      3.0716121997     -0.0799075579
H       0.0760873615      1.3809057613      0.6412447620
H      -0.0570534946      1.3472138025     -1.0997980890
C      -2.6532537127      3.0763525479      0.2009009686
H      -0.5958271797      3.6112943666      0.7177852758
H      -3.7747600595      1.3949961607     -0.7796153971
H      -3.7409674848      1.3440420090      0.9699055465
15
step 6  E = -12.77104102 Ha  |g|max = 0.014920
C      -3.1521113102      1.5679385425      0.0943542964
C      -1.8707503610      0.6317817099      0.0472861245
H      -0.8333914562      3.5574676137     -1.0136923989
H      -2.9129569782      3.5151512657      1.1622274780
H      -3.1344244341      3.6673529404     -0.5602110800
C      -0.5987779801      1.5597550235     -0.1671204116
H      -1.8134553520      0.0597274118      0.9606534904
H      -1.9301137908     -0.0732168543     -0.7803751744
C      -1.0847094644      3.0709581668     -0.0798076459
H       0.0865309746      1.3779162176      0.6501902114
H      -0.0660682916      1.3501410289     -1.0913399093
C      -2.6513793695      3.0723686085      0.2038787494
H      -0.5915879083      3.6091271785      0.7181162905
H      -3.7701707594      1.3999153322     -0.7726231410
H      -3.7462673354      1.3393220637      0.9777377681
15
step 7  E = -12.77191544 Ha  |g|max = 0.007901
C      -3.1537539714      1.5668459316      0.1068556343
C      -1.8718222790      0.6286825619      0.0347323882
H      -0.8380515837      3.5600778237     -1.0127491380
H      -2.9082093539      3.5109489298      1.1599966783
H      -3.1358772247      3.6676773941     -0.5600141591
C      -0.5953976610      1.5598663339     -0.1538909814
H      -1.8097231436      0.0605369204      0.9621097712
H      -1.9328116205     -0.0708514446     -0.7768700900
C      -1.0844955822      3.0713406088     -0.0788627000
H       0.0888756111      1.3774342949      0.6494300043
H      -0.0718657504      1.3512168827     -1.0893816875
C      -2.6532727954      3.0745846345      0.1913553044
H      -0.5881250777      3.6066498851      0.7178364786
H      -3.7706084028      1.4026842113     -0.7749758226
H      -3.7444949824      1.3380112811      0.9737029641
15
step 8  E = -12.77204960 Ha  |g|max = 0.019806
C      -3.1518375939      1.5676103736      0.0936262040
C      -1.8708350353      0.6327859680      0.0475082292
H      -0.8444536498      3.5634312514     -1.0112142986
H      -2.8990557700      3.5033162404      1.1503120982
H      -3.1435401027      3.6734680538     -0.5687112570
C      -0.5992877373      1.5602740766     -0.1547731213
H      -1.8042023567      0.0653742128      0.9542502962
H      -1.9382949169     -0.0763056888     -0.7847038676
C      -1.0847426917      3.0708636145     -0.0782483879
H       0.0998147645      1.3740452722      0.6585377776
H      -0.0827371332      1.3546940508     -1.0802741167
C      -2.6515052599      3.0709704884      0.1923371717
H      -0.5832679842      3.6039140303      0.7182049899
H      -3.7666278798      1.4084634102     -0.7685011292
H      -3.7490604725      1.3328008951      0.9809240512
15
step 9  E = -12.77291875 Ha  |g|max = 0.005284
C      -3.1529803686      1.5666981986      0.1068556343
C      -1.8720576856      0.6299864791      0.0344663592
H      -0.8465112167      3.5645646196     -1.0108215561
H      -2.8972990092      3.5022082890      1.1516112672
H      -3.1428408550      3.6718883488     -0.5667561935
C      -0.5960594444      1.5604703326     -0.1441158627
H      -1.8022708878      0.0637060766      0.9584395165
H      -1.9391649076     -0.0724746557     -0.7800107148
C      -1.0844402763      3.0713445963     -0.0777917863
H       0.0989017599      1.3743841230      0.6559675660
H      -0.0845373676      1.3546642630     -1.0815753629
C      -2.6532455479      3.0732809294      0.1821954545
H      -0.5819216278      3.6027651424      0.7180433199
H      -3.7689420202      1.4090782145     -0.7730490825
H      -3.7462643653      1.3331412919      0.9758160792
15
step 10  E = -12.77304996 Ha  |g|max = 0.007641
C      -3.1534600132      1.5668259738      0.1002442821
C      -1.8713918723      0.6305636328      0.0410810744
H      -0.8491249901      3.5659704871     -1.0102854164
H      -2.8928690024      3.4990234201      1.1475010291
H      -3.1459334831      3.6735077381     -0.5704404593
C      -0.5969509325      1.5606152604     -0.1446544933
H      -1.7996457703      0.0653416175      0.9549780283
H      -1.9416634228     -0.0735626501     -0.7829592633
C      -1.0844610148      3.0713328702     -0.0774506282
H       0.1030027796      1.3729308960      0.6595426729
H      -0.0894631927      1.3562845392     -1.0777036524
C      -2.6526322402      3.0724100578      0.1829904289
H      -0.5801201059      3.6017411692      0.7183065962
H      -3.7673794763      1.4115983600     -0.7702088947
H      -3.7475410842      1.3311228769      0.9783333305
15
step 11  E = -12.77318700 Ha  |g|max = 0.005243
C      -3.1530552046      1.5664910105      0.1068589972
C      -1.8721762765      0.6302137572      0.0346780760
H      -0.8506766937      3.5668343136     -1.0099689036
H      -2.8910035069      3.4980459884      1.1478586054
H      -3.1461534656      3.6728550014     -0.5702025797
C      -0.5961162127      1.5607194418     -0.1387088648
H      -1.7979641022      0.0640880246      0.9573121047
H      -1.9426012988     -0.0714578741     -0.7809177774
C      -1.0843479913      3.0714700757     -0.0772127452
H       0.1033743602      1.3728175237      0.6589424199
H      -0.0912706489      1.3565276471     -1.0780681249
C      -2.6533678800      3.0727819386      0.1773134099
H      -0.5791205025      3.6010466111      0.7183656704
H      -3.7689011322      1.4122788160     -0.7728685885
H      -3.7462532664      1.3309939734      0.9758929332
15
step 12  E = -12.77321088 Ha  |g|max = 0.007230
C      -3.1535450061      1.5666569272      0.1003749373
C      -1.8715034517      0.6307001874      0.0412927911
H      -0.8521803863      3.5676466464     -1.0096449257
H      -2.8878360756      3.4959965846      1.1448778867
H      -3.1483521225      3.6737631936     -0.5730492918
C      -0.5968784658      1.5608997175     -0.1403338753
H      -1.7962337743      0.0650788621      0.9544670457
H      -1.9443255920     -0.0721877462     -0.7835289883
C      -1.0843519444      3.0714971320     -0.0769994598
H       0.1061759014      1.3717477048      0.6616484690
H      -0.0947003527      1.3576884931     -1.0752721765
C      -2.6526687733      3.0721222223      0.1791326440
H      -0.5782270620      3.6005462994      0.7185900924
H      -3.7676232672      1.4139438085     -0.7704300172
H      -3.7473834508      1.3296062160      0.9781494979
15
step 13  E = -12.77328540 Ha  |g|max = 0.005773
C      -3.1531183168      1.5663596386      0.1069896525
C      -1.8722589994      0.6303762543      0.0349676933
H      -0.8531875633      3.5682356750     -1.0094349816
H      -2.8865632932      3.4955511116      1.1457327090
H      -3.1482051489      3.6728743689     -0.5725126811
C      -0.5961432951      1.5609765433     -0.1350403385
H      -1.7949873057      0.0635653098      0.9570020600
H      -1.9448781744     -0.0699781857     -0.7813840007
C      -1.0842375062      3.0716306330     -0.0768544872
H       0.1060533169      1.3718033793      0.6607566594
H      -0.0958199397      1.3577187885     -1.0761191371
C      -2.6533572542      3.0724464191      0.1740672463
H      -0.5776419678      3.6001347880      0.7186620027
H      -3.7691993636      1.4142340689     -0.7731957344
H      -3.7460890128      1.3297774560      0.9756379650
15
step 14  E = -12.77328803 Ha  |g|max = 0.006658
C      -3.1536025941      1.5665424821      0.1005564578
C      -1.8715760424      0.6307861065      0.0415824084
H      -0.8538845202      3.5686426549     -1.0092841934
H      -2.8844369666      3.4942707300      1.1434197411
H      -3.1497834607      3.6734805567     -0.5747376912
C      -0.5968374068      1.5610928404     -0.1375768728
H      -1.7940120099      0.0643696173      0.9543607847
H      -1.9459899689     -0.0707273185     -0.7838314164
C      -1.0842545661      3.0716424480     -0.0767359399
H       0.1080165384      1.3710322383      0.6628667875
H      -0.0981300818      1.3585441054     -1.0739664886
C      -2.6526612780      3.0719104375      0.1767386398
H      -0.5773240473      3.6000029243      0.7188531306
H      -3.7679097180      1.4153021875     -0.7708118263
H      -3.7472477026      1.3288142381      0.9778411035
15
step 15  E = -12.77331811 Ha  |g|max = 0.006330
C      -3.1531738412      1.5662602909      0.1071711730
C      -1.8723125398      0.6304756412      0.0353014295
H      -0.8545653677      3.5690681998     -1.0091283189
H      -2.8835318291      3.4941359002      1.1445417495
H      -3.1494326966      3.6724887582     -0.5740264113
C      -0.5961821098      1.5611601887     -0.1326662890
H      -1.7930431272      0.0627450698      0.9569495329
H      -1.9463066050     -0.0685013234     -0.7816523724
C      -1.0841427848      3.0717684598     -0.0766446772
H       0.1076414297      1.3711907023      0.6618091508
H      -0.0988545763      1.3584406072     -1.0750781281
C      -2.6533082822      3.0721928199      0.1720236406
H      -0.5769829416      3.5997562024      0.7189240319
H      -3.7694417028      1.4153667644     -0.7735711756
H      -3.7459968515      1.3291579669      0.9753212870
15
step 16  E = -12.77332869 Ha  |g|max = 0.006185
C      -3.1536218472      1.5664580759      0.1007485632
C      -1.8716277258      0.6308630454      0.0419161446
H      -0.8548338115      3.5692546830     -1.0090633599
H      -2.8820261657      3.4932530732      1.1425350076
H      -3.1506915293      3.6730143169     -0.5759104704
C      -0.5968401678      1.5612362783     -0.1357420649
H      -1.7925146173      0.0635375172      0.9543541261
H      -1.9470734519     -0.0693857762     -0.7840625151
C      -1.0841721310      3.0717646026     -0.0765764029
H       0.1091913442      1.3705839622      0.6636101203
H      -0.1005400675      1.3590794474     -1.0732236097
C      -2.6526176895      3.0717270405      0.1751944025
H      -0.5769501811      3.5998029913      0.7190812863
H      -3.7680863755      1.4161143642     -0.7711543381
H      -3.7472294098      1.3284026264      0.9775677308
15
step 17  E = -12.77340440 Ha  |g|max = 0.000900
C      -3.1534258287      1.5663200555      0.1040559208
C      -1.8719839732      0.6306955943      0.0387866237
H      -0.8550625018      3.5694116107     -1.0090030076
H      -2.8817113065      3.4932907652      1.1431773179
H      -3.1504475320      3.6724953275     -0.5754896668
C      -0.5965327167      1.5612668870     -0.1334167251
H      -1.7921338783      0.0627066515      0.9556448821
H      -1.9471479102     -0.0682830766     -0.7829653090
C      -1.0841186363      3.0718235606     -0.0765475508
H       0.1089242042      1.3707004411      0.6630213542
H      -0.1007658601      1.3589793874     -1.0738618259
C      -2.6529288279      3.0718635391      0.1729536834
H      -0.5768587317      3.5997327182      0.7191136992
H      -3.7688130367      1.4160708681     -0.7725084445
H      -3.7466272913      1.3286319186      0.9763136682
