15
Properties=species:S:1:pos:R:3 common=T start:=T planar=T +=T kick(amp=0.5,seed=0) pbc="F F F"
C       -3.15301489       1.56618996       0.10737573
C       -1.87191099       0.63084383       0.04321748
H       -0.85130478       3.57186630      -1.01141828
H       -2.87605342       3.49800875       1.14260437
H       -3.15586114       3.67006870      -0.58385748
C       -0.59716683       1.56175325      -0.12769944
H       -1.78840776       0.04828186       0.95611936
H       -1.94973990      -0.06071814      -0.79044361
C       -1.08409698       3.07205271      -0.07590700
H        0.11817859       1.36945107       0.66646832
H       -0.10813530       1.35794753      -1.07577557
C       -2.65250362       3.07130486       0.16924286
H       -0.57826252       3.60490848       0.72365447
H       -3.76801959       1.41461991      -0.77494234
H       -3.75333467       1.32912717       0.98063580
