15
common start: planar + kick(amp=0.5,seed=0)
C      -3.1552186131      1.5639525371      0.0292362194
C      -1.8685612380      0.6304097522      0.1202473600
H      -0.7664892212      3.5130695146     -1.0241138476
H      -2.9754039984      3.5873398555      1.2248259215
H      -3.0791302326      3.6071565242     -0.5211673451
C      -0.5972909124      1.5556003556     -0.2885872613
H      -1.8548469841      0.0029328662      1.0009187689
H      -1.8878363201     -0.0145290404     -0.7479387524
C      -1.0812089709      3.0691677196     -0.0913311276
H      -0.0083582395      1.3961492239      0.6034126683
H       0.0244516755      1.3319385777     -1.1456130028
C      -2.6549093689      3.0818344304      0.3253784404
H      -0.6517970014      3.6433980678      0.7196714478
H      -3.8125992221      1.3521686014     -0.8019292326
H      -3.7004351643      1.3851172609      0.9462644116
