15
step 0  E = -12.52552442 Ha
C      -3.0155887051      1.6172696362      0.0000020686
C      -1.9477181495      0.3755608063      0.0000096000
H      -0.9149302691      3.1321961157     -1.0255401987
H      -3.1972843414      3.8277528563      0.8736553551
H      -3.3051712760      3.9810616202     -0.7046270992
C      -0.4742239173      1.6917720112      0.0000039514
H      -1.9882913386     -0.2408656270      0.8736642119
H      -1.9983999078     -0.3944792659     -0.7411852183
C      -1.1033566272      2.8920899848      0.0000058343
H       0.1336213617      1.5814941061      0.8736532018
H       0.1829873376      1.5725362324     -0.8359124964
C      -2.8417500421      3.3225512143      0.0000039514
H      -0.7219753559      3.3780719651      0.8736590567
H      -3.6049574927      1.4321480108     -0.8736537722
H      -3.2725948507      1.5365464464      1.0355365779
15
step 1  E = -12.61259208 Ha  |g|max = 0.083322
C      -3.0258328696      1.6202143928      0.0004236741
C      -1.9143985185      0.4163448871     -0.0013423005
H      -0.9101844438      3.1524756139     -1.0269400315
H      -3.1937189743      3.8212486884      0.8838873239
H      -3.2999245052      3.9758341494     -0.7180484736
C      -0.4717376342      1.5859365690      0.0084070254
H      -1.9881522957     -0.2355010740      0.8822287317
H      -1.9982599847     -0.3895271517     -0.7516105729
C      -1.1501040855      2.9759915877     -0.0073277298
H       0.1344220518      1.5766137732      0.8785086241
H       0.1827725560      1.5690283030     -0.8410428461
C      -2.8081308158      3.2839699452      0.0048059678
H      -0.7184418615      3.3923116605      0.8703592284
H      -3.6181961642      1.4283935321     -0.8686314272
H      -3.2897460401      1.5323712475      1.0355978249
15
step 2  E = -12.66313718 Ha  |g|max = 0.044594
C      -3.0469884918      1.6246040800      0.0050698819
C      -1.8247540286      0.4928295829     -0.0018904855
H      -0.8881211002      3.2111463782     -1.0347738282
H      -3.1748557046      3.7881875203      0.8962796974
H      -3.2693046228      3.9371633998     -0.7356570332
C      -0.5694802989      1.4801011269      0.0138391920
H      -1.9836690288     -0.2036222827      0.8888983131
H      -1.9919007549     -0.3530476354     -0.7652352722
C      -1.1965269141      3.0214319068     -0.0204645277
H       0.1415622001      1.5569935315      0.8987008269
H       0.1814173153      1.5532794863     -0.8511283964
C      -2.7471239995      3.2252836121      0.0137763674
H      -0.7015991818      3.4378883930      0.8621048028
H      -3.6573306167      1.4158135656     -0.8540664626
H      -3.3409583935      1.5176534915      1.0338219234
15
step 3  E = -12.67430596 Ha  |g|max = 0.109940
C      -3.0520942337      1.5951191938      0.0148890605
C      -1.8935745853      0.4613466558      0.0054436381
H      -0.8597544338      3.2884979996     -1.0219529254
H      -3.1235120423      3.7130532829      0.8906680760
H      -3.1966902568      3.8423828999     -0.7352142075
C      -0.4946647499      1.5859365690      0.0177785311
H      -1.9522703846     -0.1186539109      0.8676543430
H      -1.9540342313     -0.2501816367     -0.7585192786
C      -1.0936181634      2.9790844436     -0.0157637230
H       0.0754237635      1.5052955796      0.8628073292
H       0.1074961050      1.5041901107     -0.8082195792
C      -2.8027421587      3.2323301926      0.0202240572
H      -0.6981135556      3.4837031775      0.8102860502
H      -3.7104377963      1.3955214839     -0.8240677594
H      -3.4210469399      1.4880801456      1.0232613517
15
step 4  E = -12.71687229 Ha  |g|max = 0.047002
C      -3.0795528527      1.6026063544      0.0168326552
C      -1.8353780833      0.5671820979      0.0011222409
H      -0.8487789669      3.3115829005     -1.0160543154
H      -3.1267439199      3.7134946372      0.9231900150
H      -3.1984699929      3.8431814016     -0.7675408124
C      -0.5941965292      1.5089541469      0.0188410274
H      -1.9508008065     -0.1261757945      0.9018862768
H      -1.9518602392     -0.2557222234     -0.7905255825
C      -1.1608938200      3.0302696355     -0.0428646323
H       0.1001404015      1.4919870422      0.9050786374
H       0.1323003924      1.4906796894     -0.8467640640
C      -2.7072004975      3.1473493395      0.0195914339
H      -0.6816567042      3.5121292029      0.8195670139
H      -3.7218268562      1.3897106783     -0.8104817070
H      -3.4447152075      1.4784770920      1.0173967636
15
step 5  E = -12.73123373 Ha  |g|max = 0.054539
C      -3.0818703670      1.5924888427      0.0242838615
C      -1.8715492038      0.5170856571      0.0067874667
H      -0.8360666200      3.3391755108     -1.0244227171
H      -3.1021641621      3.6802958914      0.9079006650
H      -3.1707741929      3.8010432581     -0.7565617438
C      -0.5412788081      1.5497550144      0.0152707226
H      -1.9393990196     -0.0908896263      0.8860424612
H      -1.9389196252     -0.2117256899     -0.7809303227
C      -1.1214535575      3.0186356007     -0.0188645516
H       0.0727216950      1.4784599094      0.8894521733
H       0.1048508098      1.4749323064     -0.8294050215
C      -2.7460844151      3.1834224770      0.0218426237
H      -0.6838593079      3.5234309081      0.7978489714
H      -3.7407896980      1.3823787522     -0.8056275969
H      -3.4729972229      1.4672173943      1.0156579422
15
step 6  E = -12.74231856 Ha  |g|max = 0.026590
C      -3.0929610239      1.5948919454      0.0238627672
C      -1.8437924586      0.5700033782      0.0064686928
H      -0.8305534136      3.3546710375     -1.0105327606
H      -3.0975212266      3.6722688714      0.9189985740
H      -3.1641376990      3.7894239788     -0.7690134539
C      -0.5859596436      1.5247242774      0.0205714619
H      -1.9354785123     -0.0868251271      0.8989044503
H      -1.9348902145     -0.2030926589     -0.7943504405
C      -1.1414584102      3.0305644719     -0.0482233261
H       0.0729398978      1.4688835168      0.8978722251
H       0.1075719909      1.4646372171     -0.8401431307
C      -2.7055278586      3.1441039465      0.0240219267
H      -0.6726456351      3.5443269085      0.8032855593
H      -3.7508560956      1.3780859425     -0.7964405117
H      -3.4943634069      1.4590385079      1.0139928872
15
step 7  E = -12.74932316 Ha  |g|max = 0.026620
C      -3.0964857864      1.5895503017      0.0309597970
C      -1.8623751972      0.5528840103      0.0093934463
H      -0.8213297398      3.3738733220     -1.0174803692
H      -3.0829416962      3.6544090555      0.9146592259
H      -3.1486764076      3.7645435158     -0.7655618411
C      -0.5650177823      1.5426976303      0.0136068390
H      -1.9280778217     -0.0672604498      0.8927977851
H      -1.9267177234     -0.1766337984     -0.7911191216
C      -1.1200819847      3.0317138615     -0.0261150915
H       0.0593514286      1.4604122249      0.8937276553
H       0.0925316095      1.4534867072     -0.8317989904
C      -2.7191107597      3.1508329343      0.0223483693
H      -0.6753250880      3.5499122309      0.7857241015
H      -3.7620179027      1.3737611993     -0.7920099927
H      -3.5133588681      1.4515234724      1.0101430947
15
step 8  E = -12.75114539 Ha  |g|max = 0.058668
C      -3.1123311973      1.5863923749      0.0294988952
C      -1.8418422513      0.6058017314      0.0104672992
H      -0.8128391764      3.3985664618     -0.9947080544
H      -3.0689086032      3.6351926910      0.9233597517
H      -3.1343797770      3.7385567011     -0.7814605671
C      -0.6040234674      1.5285565913      0.0260008306
H      -1.9184979748     -0.0534897400      0.9056874155
H      -1.9181517710     -0.1526101902     -0.8061101948
C      -1.1331338620      3.0396979034     -0.0735168668
H       0.0497928261      1.4444551314      0.8980916412
H       0.0897037308      1.4343849957     -0.8443504486
C      -2.6794838320      3.1122479060      0.0319231799
H      -0.6587351352      3.5826938094      0.7938332548
H      -3.7771521070      1.3673875350     -0.7778800171
H      -3.5496511441      1.4378723254      1.0084387624
15
step 9  E = -12.75872958 Ha  |g|max = 0.042100
C      -3.1115884159      1.5822431078      0.0426839742
C      -1.8723893214      0.5706790386      0.0140621760
H      -0.8016674523      3.4171194382     -1.0185159493
H      -3.0565699095      3.6230597003      0.9202810025
H      -3.1226363930      3.7182222084     -0.7741617431
C      -0.5665901660      1.5541166115      0.0088041114
H      -1.9126658251     -0.0372682508      0.8975251524
H      -1.9116396700     -0.1308198286     -0.8006413445
C      -1.1062427499      3.0391515884     -0.0205991457
H       0.0394520806      1.4399065615      0.8965587622
H       0.0741478352      1.4261110324     -0.8324143106
C      -2.7065693188      3.1274956904      0.0221104473
H      -0.6674327693      3.5783424131      0.7697851999
H      -3.7861211884      1.3643032280     -0.7793416263
H      -3.5611204832      1.4330436896      1.0031381641
15
step 10  E = -12.75966837 Ha  |g|max = 0.054164
C      -3.1240713239      1.5798815736      0.0340880626
C      -1.8508596084      0.6092383641      0.0138842428
H      -0.8020707377      3.4228365531     -0.9930805696
H      -3.0512735040      3.6159969751      0.9247599410
H      -3.1198333724      3.7101677190     -0.7879739083
C      -0.5982887904      1.5376735781      0.0260317609
H      -1.9082147672     -0.0360691267      0.9085528230
H      -1.9095081028     -0.1242047753     -0.8121375289
C      -1.1173281413      3.0478601669     -0.0735168668
H       0.0365114398      1.4326137002      0.8984867628
H       0.0788739208      1.4165502945     -0.8462594795
C      -2.6791655074      3.1047095993      0.0361769349
H      -0.6551499630      3.5992700825      0.7847247779
H      -3.7897033020      1.3625320305     -0.7701355296
H      -3.5795519985      1.4266494981      1.0056734326
15
step 11  E = -12.76323434 Ha  |g|max = 0.046711
C      -3.1206410631      1.5785275291      0.0505740163
C      -1.8729152656      0.5837018108      0.0172018316
H      -0.7913694173      3.4405009487     -1.0171846453
H      -3.0422735304      3.6082883584      0.9259622918
H      -3.1105600629      3.6926324088     -0.7805449408
C      -0.5714424516      1.5567187243      0.0052062280
H      -1.9035455865     -0.0233714167      0.9019052700
H      -1.9043525303     -0.1063697265     -0.8078168874
C      -1.1007339007      3.0461123872     -0.0205991457
H       0.0301611945      1.4289361640      0.9002343024
H       0.0651074109      1.4094581703     -0.8344169394
C      -2.6956805615      3.1141257493      0.0207800950
H      -0.6629611307      3.5946004910      0.7625235818
H      -3.7991196341      1.3594545533     -0.7743022417
H      -3.5893072337      1.4223900821      0.9997520282
15
step 12  E = -12.76421972 Ha  |g|max = 0.049717
C      -3.1316563263      1.5756780418      0.0377216033
C      -1.8567918965      0.6126015538      0.0165919723
H      -0.7936829762      3.4419518176     -0.9921728753
H      -3.0375615882      3.6025883247      0.9258674954
H      -3.1100043281      3.6883281676     -0.7933195221
C      -0.5946073446      1.5444841569      0.0262887323
H      -1.8996832430     -0.0237112496      0.9104210278
H      -1.9034151273     -0.1019878516     -0.8163394633
C      -1.1075162230      3.0520145744     -0.0735168668
H       0.0264142651      1.4241000932      0.8981671013
H       0.0704005000      1.4021059089     -0.8474308256
C      -2.6773325105      3.0984045601      0.0397755678
H      -0.6522660616      3.6121242495      0.7783591015
H      -3.7985354004      1.3591362480     -0.7648157540
H      -3.6033955105      1.4178876415      1.0036775382
15
step 13  E = -12.76552088 Ha  |g|max = 0.050990
C      -3.1276802702      1.5755729994      0.0578267227
C      -1.8731569959      0.5937305241      0.0200806422
H      -0.7838897784      3.4582189382     -1.0154260852
H      -3.0311619763      3.5985452026      0.9310660934
H      -3.1021110177      3.6724972660     -0.7851022584
C      -0.5751304093      1.5583418292      0.0012268069
H      -1.8958722285     -0.0136972491      0.9050067560
H      -1.8991524466     -0.0873714512     -0.8133183880
C      -1.0955211993      3.0520701727     -0.0205991457
H       0.0235727896      1.4209506252      0.9033323376
H       0.0577129726      1.3960302338     -0.8352897500
C      -2.6879843409      3.1039991699      0.0184476400
H      -0.6600882099      3.6063505835      0.7566386188
H      -3.8079760176      1.3562211168     -0.7709813626
H      -3.6111946472      1.4142462766      0.9963661940
15
step 14  E = -12.76674614 Ha  |g|max = 0.045796
C      -3.1370767753      1.5726993775      0.0408913881
C      -1.8609779540      0.6156393731      0.0188497140
H      -0.7870115897      3.4573177511     -0.9916994840
H      -3.0266247110      3.5931878072      0.9269275410
H      -3.1033853471      3.6711684551     -0.7980267219
C      -0.5924878823      1.5495939213      0.0266573882
H      -1.8924058554     -0.0149106347      0.9118707621
H      -1.8990436574     -0.0843163177     -0.8196568786
C      -1.1012795716      3.0546318715     -0.0735168668
H       0.0189479309      1.4178035265      0.8979965445
H       0.0639760191      1.3899824967     -0.8486517620
C      -2.6747183955      3.0931204330      0.0429113603
H      -0.6499605213      3.6221949179      0.7738094697
H      -3.8047760348      1.3567033089     -0.7612205999
H      -3.6228094358      1.4108899522      1.0021329567
15
step 15  E = -12.77022833 Ha  |g|max = 0.007594
C      -3.1352415035      1.5729385113      0.0526829533
C      -1.8671141817      0.6086052567      0.0208306340
H      -0.7826836139      3.4646098434     -1.0026206223
H      -3.0244780112      3.5927117707      0.9313013177
H      -3.0997342187      3.6637062227     -0.7931588886
C      -0.5851586203      1.5543768920      0.0118782194
H      -1.8908605729     -0.0109636613      0.9096108363
H      -1.8972350631     -0.0783649174     -0.8187592390
C      -1.0959710840      3.0561111364     -0.0470580062
H       0.0189543349      1.4164252182      0.9020689319
H       0.0577980866      1.3874761306     -0.8421051022
C      -2.6787043590      3.0947404164      0.0291631111
H      -0.6541087421      3.6185737383      0.7628338499
H      -3.8093917938      1.3553774366     -0.7650707627
H      -3.6257044402      1.4093822451      0.9976775735
15
step 16  E = -12.77090161 Ha  |g|max = 0.025507
C      -3.1461791627      1.5679767933      0.0501200495
C      -1.8677163929      0.6176033731      0.0235712539
H      -0.7794627937      3.4781108988     -0.9860664379
H      -3.0092582721      3.5805763152      0.9298934044
H      -3.0922456803      3.6410370440     -0.8003408979
C      -0.5842213803      1.5562986196      0.0176873455
H      -1.8805480851     -0.0016675083      0.9123554170
H      -1.8927789525     -0.0559598482     -0.8237919988
C      -1.0826897253      3.0700250080     -0.0650653578
H       0.0081183623      1.4088791699      0.8990483582
H       0.0493525697      1.3714956000     -0.8441055038
C      -2.6738315911      3.0888241917      0.0395694857
H      -0.6531668322      3.6286445669      0.7560529442
H      -3.8128425592      1.3535512174     -0.7567606442
H      -3.6521633007      1.4003108016      0.9971073555
15
step 17  E = -12.77115229 Ha  |g|max = 0.025841
C      -3.1413592062      1.5706035035      0.0660560556
C      -1.8697011343      0.6195460792      0.0252107864
H      -0.7717668565      3.4903304693     -1.0049260424
H      -3.0086214839      3.5830203712      0.9381073607
H      -3.0906852856      3.6354096611     -0.7981959418
C      -0.5877024265      1.5624099977      0.0054247798
H      -1.8786704276     -0.0000722969      0.9124404086
H      -1.8914109959     -0.0519070717     -0.8254142079
C      -1.0925294335      3.0566210856     -0.0386064972
H       0.0104361787      1.4071350066      0.9053842412
H       0.0466992527      1.3675812838     -0.8418868220
C      -2.6677466580      3.0832904152      0.0241785613
H      -0.6523472129      3.6311580986      0.7531267219
H      -3.8188132923      1.3518021589     -0.7632966091
H      -3.6554148156      1.3987774818      0.9916719702
15
step 18  E = -12.77165273 Ha  |g|max = 0.022279
C      -3.1479673934      1.5674297097      0.0531694092
C      -1.8686746279      0.6202302881      0.0255216311
H      -0.7752116082      3.4872092659     -0.9896857533
H      -3.0038235518      3.5787449900      0.9313241203
H      -3.0905785913      3.6331036785     -0.8034332457
C      -0.5854565128      1.5561284510      0.0178969114
H      -1.8759846051      0.0008723536      0.9130271319
H      -1.8914386719     -0.0475838968     -0.8261389634
C      -1.0835110236      3.0682113063     -0.0650653578
H       0.0060864977      1.4067631573      0.9000554486
H       0.0469839067      1.3649109542     -0.8456500102
C      -2.6732492976      3.0845524335      0.0411781181
H      -0.6507294990      3.6348884616      0.7576879804
H      -3.8142387207      1.3530217284     -0.7564414701
H      -3.6618401006      1.3972233631      0.9958288071
15
step 19  E = -12.77254887 Ha  |g|max = 0.004305
C      -3.1462369280      1.5680903755      0.0616882669
C      -1.8697723970      0.6209010908      0.0261312323
H      -0.7723433555      3.4920266560     -0.9968614562
H      -3.0038424149      3.5803902960      0.9360001269
H      -3.0896900588      3.6299203010     -0.8014791040
C      -0.5864534632      1.5594169184      0.0105192566
H      -1.8751693488      0.0013018025      0.9132215561
H      -1.8908554449     -0.0456761239     -0.8268554821
C      -1.0861984654      3.0644042347     -0.0518359275
H       0.0074233578      1.4059178227      0.9034344365
H       0.0451470868      1.3630839453     -0.8437313985
C      -2.6699840873      3.0826605212      0.0316665264
H      -0.6514865027      3.6345350396      0.7543325715
H      -3.8169775982      1.3522358536     -0.7597797096
H      -3.6631941803      1.3964975115      0.9928238577
15
step 20  E = -12.77269881 Ha  |g|max = 0.007111
C      -3.1485988303      1.5671312685      0.0604102938
C      -1.8699990017      0.6225216364      0.0272478044
H      -0.7717907774      3.4948467725     -0.9929768895
H      -2.9999766272      3.5785147135      0.9345515867
H      -3.0893145701      3.6253019628     -0.8040806349
C      -0.5863658080      1.5598959733      0.0133950358
H      -1.8722591851      0.0021874004      0.9137972433
H      -1.8904390275     -0.0407112632     -0.8283291236
C      -1.0842490243      3.0663750631     -0.0584506426
H       0.0052867058      1.4048769544      0.9023017757
H       0.0438710812      1.3588660833     -0.8450925502
C      -2.6692305503      3.0816705085      0.0365996170
H      -0.6506898217      3.6374228161      0.7549446122
H      -3.8162343800      1.3522855077     -0.7581499205
H      -3.6696439864      1.3945208480      0.9931065343
15
step 21  E = -12.77282717 Ha  |g|max = 0.006239
C      -3.1484459093      1.5672699145      0.0649808234
C      -1.8704114926      0.6232911194      0.0278520146
H      -0.7700747376      3.4983657018     -0.9960827518
H      -2.9988718269      3.5792888949      0.9371366082
H      -3.0885033284      3.6218199539     -0.8031142426
C      -0.5866499745      1.5606988967      0.0094994875
H      -1.8708998311      0.0025492448      0.9139938278
H      -1.8900562101     -0.0380268780     -0.8289891241
C      -1.0843857188      3.0660678767     -0.0518359275
H       0.0054816632      1.4043138980      0.9039038163
H       0.0421669854      1.3567231355     -0.8439861351
C      -2.6681364844      3.0803074939      0.0314585481
H      -0.6512881018      3.6374735226      0.7525810640
H      -3.8172618869      1.3520007621     -0.7595460192
H      -3.6722969504      1.3935627089      0.9914227459
15
step 22  E = -12.77291642 Ha  |g|max = 0.005669
C      -3.1498923185      1.5665921342      0.0626962768
C      -1.8703861428      0.6240969679      0.0285000031
H      -0.7700976437      3.4994620170     -0.9928596783
H      -2.9965057366      3.5781157071      0.9353213719
H      -3.0887446628      3.6197202432     -0.8053758866
C      -0.5866388041      1.5605587964      0.0128479893
H      -1.8691541194      0.0028329305      0.9141863183
H      -1.8900335748     -0.0352269360     -0.8297047565
C      -1.0833157178      3.0670967282     -0.0584506426
H       0.0040615460      1.4039498382      0.9025721147
H       0.0418239370      1.3543497949     -0.8453392143
C      -2.6680056015      3.0798736670      0.0367019018
H      -0.6504558795      3.6395628296      0.7541018242
H      -3.8161220664      1.3522223204     -0.7581153539
H      -3.6761670201      1.3924992072      0.9921924606
15
step 23  E = -12.77296800 Ha  |g|max = 0.007752
C      -3.1499393467      1.5665713694      0.0675816732
C      -1.8708268964      0.6248244282      0.0292415162
H      -0.7684854753      3.5029188833     -0.9957444638
H      -2.9953393311      3.5791086288      0.9379507582
H      -3.0879332120      3.6159711449     -0.8041978642
C      -0.5867677115      1.5612515735      0.0087056616
H      -1.8676770687      0.0030053751      0.9143424876
H      -1.8897376227     -0.0324289556     -0.8304264726
C      -1.0830465132      3.0672594065     -0.0518359275
H       0.0043497346      1.4034659618      0.9042315279
H       0.0399668278      1.3521104631     -0.8440942892
C      -2.6671435786      3.0787387284      0.0312478826
H      -0.6512362172      3.6393558417      0.7515365413
H      -3.8168955463      1.3520161585     -0.7595981148
H      -3.6789218493      1.3915372384      0.9903338045
15
step 24  E = -12.77307095 Ha  |g|max = 0.004385
C      -3.1509696808      1.5661363323      0.0648041780
C      -1.8707300911      0.6253473042      0.0296679436
H      -0.7687455342      3.5032798252     -0.9927302179
H      -2.9936028428      3.5781473631      0.9359362924
H      -3.0884588676      3.6149471284     -0.8064014219
C      -0.5868152601      1.5611617791      0.0123305117
H      -1.8664305300      0.0030187186      0.9144587208
H      -1.8898661518     -0.0305756746     -0.8308860410
C      -1.0824843663      3.0677854310     -0.0584506426
H       0.0032011566      1.4033334932      0.9028040504
H       0.0400573537      1.3504603829     -0.8455155525
C      -2.6669870393      3.0784774714      0.0367502471
H      -0.6503878965      3.6411089447      0.7533771271
H      -3.8156516422      1.3522631710     -0.7582379055
H      -3.6817624150      1.3908145757      0.9913674263
15
step 25  E = -12.77313811 Ha  |g|max = 0.002533
C      -3.1510756542      1.5660632127      0.0674128022
C      -1.8709354730      0.6257038270      0.0301218203
H      -0.7679657108      3.5050342942     -0.9940960004
H      -2.9929489417      3.5787583182      0.9372539660
H      -3.0880472866      3.6128812300     -0.8057086068
C      -0.5868155479      1.5614049782      0.0101523015
H      -1.8656014960      0.0030042230      0.9145048993
H      -1.8897696833     -0.0290552813     -0.8312762569
C      -1.0821781996      3.0680625544     -0.0551432851
H       0.0033802416      1.4031427506      0.9036436957
H       0.0390320860      1.3492574869     -0.8448260653
C      -2.6667047794      3.0780162782      0.0338858544
H      -0.6508482910      3.6409133501      0.7520209902
H      -3.8158887058      1.3522047848     -0.7590264322
H      -3.6832663662      1.3903142394      0.9903550284
15
step 26  E = -12.77318592 Ha  |g|max = 0.002928
C      -3.1518621008      1.5657560171      0.0668547820
C      -1.8710033279      0.6263393751      0.0307628114
H      -0.7676561902      3.5064725815     -0.9926411269
H      -2.9911470476      3.5784918916      0.9364350395
H      -3.0883231821      3.6107753266     -0.8071110725
C      -0.5869019954      1.5616103966      0.0117313712
H      -1.8640361277      0.0028793559      0.9146145748
H      -1.8898736493     -0.0265734208     -0.8318825056
C      -1.0817218441      3.0684682778     -0.0582861350
H       0.0026235148      1.4029734027      0.9030102845
H       0.0384733526      1.3471202154     -0.8455695404
C      -2.6662442896      3.0774365682      0.0365993208
H      -0.6504613137      3.6421609116      0.7526842212
H      -3.8149258839      1.3523839859     -0.7584917825
H      -3.6865737238      1.3894113615      0.9905644616
15
step 27  E = -12.77321959 Ha  |g|max = 0.003988
C      -3.1520442582      1.5656328794      0.0697314089
C      -1.8712067250      0.6267651462      0.0313840678
H      -0.7668078408      3.5084992814     -0.9939906649
H      -2.9902731548      3.5792954335      0.9377978959
H      -3.0879462553      3.6082714562     -0.8064203242
C      -0.5869048031      1.5618221707      0.0094612072
H      -1.8629451702      0.0027163064      0.9146307343
H      -1.8898525905     -0.0246523401     -0.8323669280
C      -1.0813136006      3.0688387616     -0.0549787774
H       0.0028210237      1.4028299957      0.9038657148
H       0.0372739457      1.3455958907     -0.8448618580
C      -2.6659798890      3.0769354089      0.0336451015
H      -0.6509600924      3.6419787357      0.7512836534
H      -3.8149266885      1.3523839627     -0.7593595720
H      -3.6885677105      1.3887931581      0.9894530388
15
step 28  E = -12.77325998 Ha  |g|max = 0.001990
C      -3.1525192937      1.5654640037      0.0685117972
C      -1.8711913929      0.6270725782      0.0317132264
H      -0.7668407968      3.5089563702     -0.9925577560
H      -2.9892124565      3.5790134334      0.9367564592
H      -3.0883585242      3.6074549553     -0.8076865755
C      -0.5869733975      1.5619095677      0.0113231533
H      -1.8620703836      0.0025244930      0.9146724796
H      -1.8900149224     -0.0233519747     -0.8326607361
C      -1.0811548356      3.0689691970     -0.0582861350
H       0.0022738605      1.4028294351      0.9031259197
H       0.0372126180      1.3444401162     -0.8456345719
C      -2.6657081476      3.0766614546      0.0365875267
H      -0.6505402841      3.6428926144      0.7522404046
H      -3.8140507631      1.3525533477     -0.7587655462
H      -3.6904850903      1.3883166551      0.9899350478
15
step 29  E = -12.77326991 Ha  |g|max = 0.005082
C      -3.1528026219      1.5652820653      0.0717217641
C      -1.8714015704      0.6275724970      0.0325427335
H      -0.7659225143      3.5112942134     -0.9938632562
H      -2.9880658272      3.5800635830      0.9381370430
H      -3.0880340938      3.6044032935     -0.8069959690
C      -0.5869544447      1.5621020404      0.0089530104
H      -1.8606536034      0.0021414900      0.9146543280
H      -1.8901035243     -0.0209334512     -0.8332617543
C      -1.0806089709      3.0694798558     -0.0549787774
H       0.0025025198      1.4027606102      0.9039846628
H       0.0357944361      1.3425187483     -0.8449073597
C      -2.6654690736      3.0761459335      0.0335580937
H      -0.6511015592      3.6426912654      0.7507647084
H      -3.8137204126      1.3526295958     -0.7597328030
H      -3.6930925505      1.3875545067      0.9886982610
15
step 30  E = -12.77332217 Ha  |g|max = 0.001444
C      -3.1531312497      1.5651916376      0.0702675141
C      -1.8713605734      0.6277581466      0.0327432292
H      -0.7660697023      3.5113934398     -0.9924823589
H      -2.9873007138      3.5797731862      0.9370289978
H      -3.0885025515      3.6040939110     -0.8082260735
C      -0.5870328092      1.5621808493      0.0109048083
H      -1.8600504787      0.0019318793      0.9146755281
H      -1.8902821535     -0.0200881777     -0.8334335263
C      -1.0806127573      3.0694555294     -0.0582861350
H       0.0020409411      1.4028164757      0.9032169888
H       0.0359272626      1.3417393242     -0.8456938972
C      -2.6652173039      3.0759507628      0.0365754919
H      -0.6506621203      3.6434860199      0.7518288361
H      -3.8129046983      1.3527844774     -0.7591272762
H      -3.6944749028      1.3872387855      0.9892825551
15
step 31  E = -12.77333451 Ha  |g|max = 0.004340
C      -3.1535252271      1.5649554504      0.0732162634
C      -1.8715379150      0.6282823037      0.0337466520
H      -0.7652382478      3.5137530205     -0.9933519675
H      -2.9858983661      3.5809807656      0.9380416936
H      -3.0883802379      3.6007865535     -0.8078083816
C      -0.5869944437      1.5623198983      0.0090506810
H      -1.8583586902      0.0012470981      0.9146045217
H      -1.8905510669     -0.0172959422     -0.8341012361
C      -1.0799914094      3.0700471197     -0.0559285086
H       0.0022397408      1.4028953770      0.9038265683
H       0.0344684628      1.3395211600     -0.8451653472
C      -2.6650270832      3.0754901222      0.0343513621
H      -0.6511606925      3.6433650441      0.7506400839
H      -3.8120309475      1.3529785114     -0.7600030885
H      -3.6976476881      1.3863797647      0.9881553753
15
step 32  E = -12.77336918 Ha  |g|max = 0.001801
C      -3.1537733842      1.5649236299      0.0717378039
C      -1.8714960625      0.6284377554      0.0339394493
H      -0.7653978501      3.5138028397     -0.9920185862
H      -2.9851945001      3.5807613230      0.9369048715
H      -3.0889207343      3.6005779917     -0.8090883951
C      -0.5871021863      1.5624464671      0.0110448535
H      -1.8577818086      0.0009608694      0.9146108582
H      -1.8907711446     -0.0165010372     -0.8342466631
C      -1.0801175998      3.0699010447     -0.0592358662
H       0.0018304866      1.4029953354      0.9030447831
H       0.0346404016      1.3387846892     -0.8459808880
C      -2.6646998706      3.0752558979      0.0374573904
H      -0.6507056303      3.6441313929      0.7517667092
H      -3.8111539932      1.3531396942     -0.7594276481
H      -3.6989899354      1.3860883537      0.9887659961
