15
XYZ file generated by Avogadro.
C     -3.7977347374    1.3683016300    0.0000000000
C     -1.9966018200   -0.7260370851    0.0000127029
H     -0.3840259486    3.7585942996   -1.0255396815
H     -3.8600625834    4.7497308893    0.8736545794
H     -3.9679495180    4.9030396532   -0.7046278749
C      0.4886797071    1.4939616919    0.0000031757
H     -2.0371750091   -1.3424635184    0.8736673148
H     -2.0472835783   -1.4960771573   -0.7411821154
C     -0.5724523067    3.5184881687    0.0000063515
H      1.0965249861    1.3836837868    0.8736524261
H      1.1458909620    1.3747259131   -0.8359132721
C     -3.5045282841    4.2445292473    0.0000031757
H     -0.1910710354    4.0044701490    0.8736595739
H     -4.3871035250    1.1831800046   -0.8736558408
H     -4.0547408830    1.2875784402    1.0355345093
