15
H5C10_planar optimised  E = -12.77340440 Ha  |g|max = 0.000900 Ha/a0
C      -3.1534258287      1.5663200555      0.1040559208
C      -1.8719839732      0.6306955943      0.0387866237
H      -0.8550625018      3.5694116107     -1.0090030076
H      -2.8817113065      3.4932907652      1.1431773179
H      -3.1504475320      3.6724953275     -0.5754896668
C      -0.5965327167      1.5612668870     -0.1334167251
H      -1.7921338783      0.0627066515      0.9556448821
H      -1.9471479102     -0.0682830766     -0.7829653090
C      -1.0841186363      3.0718235606     -0.0765475508
H       0.1089242042      1.3707004411      0.6630213542
H      -0.1007658601      1.3589793874     -1.0738618259
C      -2.6529288279      3.0718635391      0.1729536834
H      -0.5768587317      3.5997327182      0.7191136992
H      -3.7688130367      1.4160708681     -0.7725084445
H      -3.7466272913      1.3286319186      0.9763136682
