15
step 32  E = -12.77336918 Ha
C      -3.1537733842      1.5649236299      0.0717378039
C      -1.8714960625      0.6284377554      0.0339394493
H      -0.7653978501      3.5138028397     -0.9920185862
H      -2.9851945001      3.5807613230      0.9369048715
H      -3.0889207343      3.6005779917     -0.8090883951
C      -0.5871021863      1.5624464671      0.0110448535
H      -1.8577818086      0.0009608694      0.9146108582
H      -1.8907711446     -0.0165010372     -0.8342466631
C      -1.0801175998      3.0699010447     -0.0592358662
H       0.0018304866      1.4029953354      0.9030447831
H       0.0346404016      1.3387846892     -0.8459808880
C      -2.6646998706      3.0752558979      0.0374573904
H      -0.6507056303      3.6441313929      0.7517667092
H      -3.8111539932      1.3531396942     -0.7594276481
H      -3.6989899354      1.3860883537      0.9887659961
