12
step 0  E = -12.74919623 Ha
C       1.3970000000      0.0000000000      0.0000000000
C       0.6985000000      1.2098374891      0.0000000000
C      -0.6985000000      1.2098374891      0.0000000000
C      -1.3970000000      0.0000000000      0.0000000000
C      -0.6985000000     -1.2098374891      0.0000000000
C       0.6985000000     -1.2098374891      0.0000000000
H       2.4840000000      0.0000000000      0.0000000000
H       1.2420000000      2.1512071030      0.0000000000
H      -1.2420000000      2.1512071030      0.0000000000
H      -2.4840000000      0.0000000000      0.0000000000
H      -1.2420000000     -2.1512071030      0.0000000000
H       1.2420000000     -2.1512071030      0.0000000000
12
step 1  E = -12.75191206 Ha  |g|max = 0.046603
C       1.4499177211      0.0000000000      0.0000000000
C       0.7249591219      1.2556657308      0.0000000000
C      -0.7249591219      1.2556657308      0.0000000000
C      -1.4499177211      0.0000000000      0.0000000000
C      -0.7249591220     -1.2556657308      0.0000000000
C       0.7249591220     -1.2556657308      0.0000000000
H       2.4758634226      0.0000000000      0.0000000000
H       1.2379316097      2.1441605616      0.0000000000
H      -1.2379316097      2.1441605616      0.0000000000
H      -2.4758634226     -0.0000000000      0.0000000000
H      -1.2379316097     -2.1441605616      0.0000000000
H       1.2379316097     -2.1441605616      0.0000000000
12
step 2  E = -12.76031072 Ha  |g|max = 0.022775
C       1.4234588605     -0.0000000000      0.0000000000
C       0.7117294760      1.2327515385      0.0000000000
C      -0.7117294760      1.2327515385      0.0000000000
C      -1.4234588606      0.0000000000      0.0000000000
C      -0.7117294760     -1.2327515385      0.0000000000
C       0.7117294760     -1.2327515385      0.0000000000
H       2.4999122178      0.0000000000      0.0000000000
H       1.2499560317      2.1649875484      0.0000000000
H      -1.2499560317      2.1649875484      0.0000000000
H      -2.4999122178     -0.0000000000      0.0000000000
H      -1.2499560317     -2.1649875484      0.0000000000
H       1.2499560317     -2.1649875484      0.0000000000
12
step 3  E = -12.76188610 Ha  |g|max = 0.008970
C       1.4366882908      0.0000000000      0.0000000000
C       0.7183442741      1.2442086359      0.0000000000
C      -0.7183442741      1.2442086359      0.0000000000
C      -1.4366882908      0.0000000000      0.0000000000
C      -0.7183442741     -1.2442086359      0.0000000000
C       0.7183442741     -1.2442086359      0.0000000000
H       2.4987291484      0.0000000000      0.0000000000
H       1.2493644389      2.1639629396      0.0000000000
H      -1.2493644389      2.1639629396      0.0000000000
H      -2.4987291484      0.0000000000      0.0000000000
H      -1.2493644389     -2.1639629396      0.0000000000
H       1.2493644389     -2.1639629396      0.0000000000
12
step 4  E = -12.76222222 Ha  |g|max = 0.011994
C       1.4348440166     -0.0000000000      0.0000000000
C       0.7174220331      1.2426114016      0.0000000000
C      -0.7174220331      1.2426114016      0.0000000000
C      -1.4348440167      0.0000000000      0.0000000000
C      -0.7174220331     -1.2426114016      0.0000000000
C       0.7174220331     -1.2426114016      0.0000000000
H       2.5119585787     -0.0000000000      0.0000000000
H       1.2559791015      2.1754200155      0.0000000000
H      -1.2559791015      2.1754200155      0.0000000000
H      -2.5119585787     -0.0000000000      0.0000000000
H      -1.2559791015     -2.1754200155      0.0000000000
H       1.2559791015     -2.1754200155      0.0000000000
12
step 5  E = -12.76265635 Ha  |g|max = 0.003309
C       1.4414587318      0.0000000000      0.0000000000
C       0.7207294780      1.2483399529      0.0000000000
C      -0.7207294780      1.2483399529      0.0000000000
C      -1.4414587318      0.0000000000      0.0000000000
C      -0.7207294780     -1.2483399529      0.0000000000
C       0.7207294780     -1.2483399529      0.0000000000
H       2.5104434168     -0.0000000000      0.0000000000
H       1.2552214816      2.1741078267      0.0000000000
H      -1.2552214816      2.1741078267      0.0000000000
H      -2.5104434168      0.0000000000      0.0000000000
H      -1.2552214816     -2.1741078267      0.0000000000
H       1.2552214816     -2.1741078267      0.0000000000
12
step 6  E = -12.76267398 Ha  |g|max = 0.005721
C       1.4407845749     -0.0000000000      0.0000000000
C       0.7203923036      1.2477560540      0.0000000000
C      -0.7203923037      1.2477560540      0.0000000000
C      -1.4407845749      0.0000000000      0.0000000000
C      -0.7203923037     -1.2477560540      0.0000000000
C       0.7203923037     -1.2477560540      0.0000000000
H       2.5170581319     -0.0000000000      0.0000000000
H       1.2585287840      2.1798363968      0.0000000000
H      -1.2585287839      2.1798363968      0.0000000000
H      -2.5170581319      0.0000000000      0.0000000000
H      -1.2585287840     -2.1798363968      0.0000000000
H       1.2585287839     -2.1798363968      0.0000000000
12
step 7  E = -12.76277512 Ha  |g|max = 0.001177
C       1.4440919325     -0.0000000000      0.0000000000
C       0.7220460716      1.2506203544      0.0000000000
C      -0.7220460716      1.2506203544      0.0000000000
C      -1.4440919325     -0.0000000000      0.0000000000
C      -0.7220460716     -1.2506203544      0.0000000000
C       0.7220460716     -1.2506203544      0.0000000000
H       2.5157660288     -0.0000000000      0.0000000000
H       1.2578826943      2.1787173752      0.0000000000
H      -1.2578826943      2.1787173752      0.0000000000
H      -2.5157660288      0.0000000000      0.0000000000
H      -1.2578826943     -2.1787173752      0.0000000000
H       1.2578826943     -2.1787173752      0.0000000000
12
step 8  E = -12.76278134 Ha  |g|max = 0.000752
C       1.4435567554     -0.0000000000      0.0000000000
C       0.7217784449      1.2501568554      0.0000000000
C      -0.7217784449      1.2501568554      0.0000000000
C      -1.4435567554      0.0000000000      0.0000000000
C      -0.7217784449     -1.2501568554      0.0000000000
C       0.7217784449     -1.2501568554      0.0000000000
H       2.5165928682     -0.0000000000      0.0000000000
H       1.2582961004      2.1794334555      0.0000000000
H      -1.2582961004      2.1794334555      0.0000000000
H      -2.5165928682     -0.0000000000      0.0000000000
H      -1.2582961005     -2.1794334555      0.0000000000
H       1.2582961004     -2.1794334555      0.0000000000
