12
benzene, ideal D6h
C       1.3970000000      0.0000000000      0.0000000000
C       0.6985000000      1.2098374891      0.0000000000
C      -0.6985000000      1.2098374891      0.0000000000
C      -1.3970000000      0.0000000000      0.0000000000
C      -0.6985000000     -1.2098374891      0.0000000000
C       0.6985000000     -1.2098374891      0.0000000000
H       2.4840000000      0.0000000000      0.0000000000
H       1.2420000000      2.1512071030      0.0000000000
H      -1.2420000000      2.1512071030      0.0000000000
H      -2.4840000000      0.0000000000      0.0000000000
H      -1.2420000000     -2.1512071030      0.0000000000
H       1.2420000000     -2.1512071030      0.0000000000
