12
benzene, distorted: 12% expanded + 0.35A alternating pucker + 0.20A noise
C       1.9728238243     -0.5111330063      0.0836197693
C       0.6687660788      1.2644881294     -0.0431194326
C      -1.1863172258      1.3086315123     -0.1730426153
C      -0.9000400967      0.0451573226     -0.0705261589
C      -0.8385774836     -1.4886272570     -0.2110301102
C       0.7041598046     -1.2586289101     -0.0477107213
H       3.0598238243     -0.5111330063      0.0836197693
H       1.2122660788      2.2058577433     -0.0431194326
H      -1.7298172258      2.2500011262     -0.1730426153
H      -1.9870400967      0.0451573226     -0.0705261589
H      -1.3820774836     -2.4299968709     -0.2110301102
H       1.2476598046     -2.1999985240     -0.0477107213
