12
step 0  E = -12.08842206 Ha
C       1.9728238243     -0.5111330063      0.0836197693
C       0.6687660788      1.2644881294     -0.0431194326
C      -1.1863172258      1.3086315123     -0.1730426153
C      -0.9000400967      0.0451573226     -0.0705261589
C      -0.8385774836     -1.4886272570     -0.2110301102
C       0.7041598046     -1.2586289101     -0.0477107213
H       3.0598238243     -0.5111330063      0.0836197693
H       1.2122660788      2.2058577433     -0.0431194326
H      -1.7298172258      2.2500011262     -0.1730426153
H      -1.9870400967      0.0451573226     -0.0705261589
H      -1.3820774836     -2.4299968709     -0.2110301102
H       1.2476598046     -2.1999985240     -0.0477107213
12
step 1  E = -12.28432108 Ha  |g|max = 0.267656
C       1.9160573700     -0.4798859035      0.0815549858
C       0.6746274753      1.2892278338     -0.0491572584
C      -1.0804817836      1.3997651171     -0.1794416322
C      -0.9892615041     -0.0322011538     -0.0686580477
C      -0.7840435549     -1.4564232396     -0.2098524258
C       0.7343352266     -1.3039658612     -0.0506201472
H       3.0536110942     -0.5113514290      0.0818858611
H       1.2179428071      2.2084291289     -0.0390312712
H      -1.7329192638      2.2420127419     -0.1723835293
H      -2.0303079722     -0.0024120242     -0.0627654665
H      -1.3828986043     -2.4220598747     -0.2075408195
H       1.2449685396     -2.2113597970     -0.0476087886
12
step 2  E = -12.39942690 Ha  |g|max = 0.201342
C       1.8703412538     -0.4414423105      0.0779438827
C       0.6606238917      1.2929693709     -0.0518468456
C      -0.9746463414      1.4018487673     -0.1777599276
C      -1.0677795687     -0.0437847521     -0.0713262281
C      -0.7435742845     -1.4427345842     -0.2075945391
C       0.7636472290     -1.3328273831     -0.0528760837
H       3.0358855041     -0.5111553918      0.0807877509
H       1.2228893672      2.2136213837     -0.0382531555
H      -1.7368373522      2.2392234164     -0.1708290657
H      -2.0601642380     -0.0180592191     -0.0589341125
H      -1.3763866273     -2.4051558657     -0.2053575980
H       1.2476310038     -2.2327278873     -0.0475726161
12
step 3  E = -12.49377892 Ha  |g|max = 0.118914
C       1.8196480078     -0.3879234298      0.0723078780
C       0.6506913584      1.2926229706     -0.0542354715
C      -0.8688108993      1.4022009806     -0.1721967155
C      -1.1257923404     -0.0594942884     -0.0772704821
C      -0.7074582764     -1.4231028534     -0.2027222673
C       0.7896776548     -1.3534190555     -0.0555389886
H       3.0066605009     -0.5090002663      0.0799122134
H       1.2262904109      2.2151804821     -0.0378522004
H      -1.7236932295      2.2216991787     -0.1696828777
H      -2.1178102215     -0.0314927655     -0.0554739306
H      -1.3636809261     -2.3811449540     -0.2031602484
H       1.2559078127     -2.2663504398     -0.0477054465
12
step 4  E = -12.58479372 Ha  |g|max = 0.076166
C       1.7446056464     -0.3030675335      0.0614219099
C       0.6658865104      1.2859968439     -0.0552252377
C      -0.7629754571      1.3798154163     -0.1604558366
C      -1.1810958744     -0.0750319401     -0.0894196501
C      -0.6760650132     -1.3936742222     -0.1929902323
C       0.8252812658     -1.3728395693     -0.0590839940
H       2.9517408606     -0.4999930688      0.0791060096
H       1.2295439681      2.2105299501     -0.0375720949
H      -1.6819673632      2.1876833356     -0.1688095759
H      -2.2060644699     -0.0446932642     -0.0521565918
H      -1.3377155278     -2.3406583283     -0.2004912143
H       1.2704553386     -2.3142920234     -0.0479420287
12
step 5  E = -12.66611796 Ha  |g|max = 0.062408
C       1.6509799893     -0.1972320913      0.0429037355
C       0.7531816948      1.2484503243     -0.0505347880
C      -0.7268086019      1.3213381815     -0.1453825048
C      -1.2487329901     -0.0761788367     -0.1050278224
C      -0.6528620848     -1.3684129302     -0.1781483576
C       0.8516031409     -1.3809783911     -0.0636900906
H       2.8615823578     -0.4705120532      0.0786225091
H       1.2389669186      2.2021751910     -0.0370864760
H      -1.5988241615      2.1386269297     -0.1677942820
H      -2.2803478484     -0.0564440938     -0.0519599251
H      -1.2966657292     -2.2844200513     -0.1975018177
H       1.2895572474     -2.3566365206     -0.0480187169
12
step 6  E = -12.71357326 Ha  |g|max = 0.052167
C       1.6052967805     -0.1311738303      0.0251634292
C       0.7763801084      1.1842647562     -0.0492612921
C      -0.6806872462      1.2553900626     -0.1307674111
C      -1.2705591379     -0.0631594624     -0.1162555156
C      -0.6187368297     -1.3505142020     -0.1628724131
C       0.8199479265     -1.3793731226     -0.0692251416
H       2.7557469156     -0.4130069544      0.0777370099
H       1.2632261215      2.1987216313     -0.0355586114
H      -1.5022021749      2.0883325707     -0.1644839468
H      -2.3506152495     -0.0682364246     -0.0553784816
H      -1.2604615685     -2.2431557667     -0.1947531790
H       1.3042943421     -2.3583135352     -0.0479629836
12
step 7  E = -12.72157173 Ha  |g|max = 0.106893
C       1.5670382089     -0.1425089050      0.0111620643
C       0.8674589099      1.2185580535     -0.0466264917
C      -0.7027497483      1.2216340023     -0.1244379079
C      -1.3482679603     -0.0779883742     -0.1185925395
C      -0.6415064861     -1.3400611093     -0.1531309879
C       0.8522120766     -1.3712295040     -0.0675064084
H       2.6551226454     -0.3397136664      0.0748703707
H       1.2605259852      2.1335343633     -0.0343239313
H      -1.3963667328      2.0405805979     -0.1585123988
H      -2.3460150685     -0.0755783315     -0.0650587547
H      -1.2287493187     -2.2178973874     -0.1923172951
H       1.3029275406     -2.3295539775     -0.0491442587
12
step 8  E = -12.72457326 Ha  |g|max = 0.086761
C       1.5746413777     -0.1043270870      0.0089056286
C       0.7704665416      1.1127226113     -0.0512089466
C      -0.6299360448      1.1884876263     -0.1186685029
C      -1.2758147137     -0.0744492016     -0.1217960152
C      -0.6097614504     -1.3201710470     -0.1475282071
C       0.7878056280     -1.3655641721     -0.0718530087
H       2.6376590711     -0.3169006223      0.0743910170
H       1.3051041170      2.1960845815     -0.0323064724
H      -1.3824930910      2.0501363704     -0.1568218639
H      -2.4195473505     -0.0792428680     -0.0659921934
H      -1.2311724212     -2.2316814644     -0.1917569881
H       1.3146784121     -2.3353189484     -0.0489829870
12
step 9  E = -12.74905995 Ha  |g|max = 0.023907
C       1.5542738589     -0.1280189082      0.0061659180
C       0.8233842627      1.1631104542     -0.0493406102
C      -0.6650650625      1.1946247527     -0.1195210415
C      -1.3266472754     -0.0731979323     -0.1202613729
C      -0.6295751776     -1.3428033619     -0.1476335607
C       0.8217118800     -1.3661152112     -0.0698193419
H       2.6338038586     -0.3023989067      0.0741852440
H       1.2945231122      2.1628552371     -0.0324586200
H      -1.3560626506      2.0387156271     -0.1549658063
H      -2.3957753005     -0.0799660880     -0.0696879886
H      -1.2222278385     -2.2229297064     -0.1906717272
H       1.3092864236     -2.3241001716     -0.0496096330
12
step 10  E = -12.75239311 Ha  |g|max = 0.027172
C       1.5534261214     -0.1168229113      0.0039819891
C       0.8124385037      1.1786902738     -0.0505198866
C      -0.6405547021      1.1819218523     -0.1167320970
C      -1.3351653529     -0.0865643725     -0.1198492803
C      -0.6213337910     -1.3259934446     -0.1438432336
C       0.7971427546     -1.3711917935     -0.0714421907
H       2.6201443983     -0.2801583383      0.0734126637
H       1.2959599076      2.1363963766     -0.0319594253
H      -1.3314692933      2.0389640713     -0.1526191164
H      -2.3998621874     -0.0813934039     -0.0742235457
H      -1.2227261612     -2.2342481253     -0.1898875436
H       1.3136299130     -2.3198243887     -0.0499368747
12
step 11  E = -12.75409580 Ha  |g|max = 0.032782
C       1.5316436985     -0.1170819460      0.0007889588
C       0.8191228694      1.1626771759     -0.0503316583
C      -0.6526060225      1.1769820468     -0.1156604010
C      -1.3327553788     -0.0766351105     -0.1193632612
C      -0.6477926515     -1.3468886638     -0.1433470668
C       0.8184424425     -1.3577833468     -0.0700285155
H       2.6164289738     -0.2636218386      0.0730235792
H       1.3029838259      2.1333960941     -0.0314658556
H      -1.3070903559      2.0341644147     -0.1505280697
H      -2.4059763897     -0.0831170671     -0.0777983884
H      -1.2129033581     -2.2279603527     -0.1883609312
H       1.3121324729     -2.3143555990     -0.0505469321
12
step 12  E = -12.75586869 Ha  |g|max = 0.028793
C       1.5433864878     -0.1147674100      0.0005502737
C       0.8085984273      1.1688542348     -0.0510985050
C      -0.6378009127      1.1735454398     -0.1141461744
C      -1.3436244537     -0.0902532135     -0.1190810045
C      -0.6257325636     -1.3282396311     -0.1403726816
C       0.7919835820     -1.3656569369     -0.0716134480
H       2.6054618245     -0.2497125302      0.0720888595
H       1.3062888011      2.1242948510     -0.0311344481
H      -1.2955736991      2.0380335990     -0.1491239877
H      -2.4065693597     -0.0826304362     -0.0808405111
H      -1.2197380362     -2.2434585243     -0.1881229635
H       1.3149500398     -2.3102336289     -0.0507239517
12
step 13  E = -12.75675611 Ha  |g|max = 0.031161
C       1.5239689607     -0.1155564565     -0.0019216799
C       0.8175963567      1.1614361858     -0.0507137146
C      -0.6485484971      1.1655834417     -0.1133497860
C      -1.3384040324     -0.0803806144     -0.1187773235
C      -0.6521914241     -1.3487695328     -0.1403809498
C       0.8126502734     -1.3570612665     -0.0702634309
H       2.6068665091     -0.2373624717      0.0718293081
H       1.3100928700      2.1193829626     -0.0308411192
H      -1.2797235246      2.0385289957     -0.1474919370
H      -2.4136262957     -0.0840922324     -0.0838581146
H      -1.2102737015     -2.2362014454     -0.1865628062
H       1.3132226546     -2.3057317442     -0.0512869892
12
step 14  E = -12.75765175 Ha  |g|max = 0.030365
C       1.5369374956     -0.1128458980     -0.0018630515
C       0.8061051257      1.1629177915     -0.0513867724
C      -0.6348043635      1.1677933679     -0.1120759021
C      -1.3509972659     -0.0949632047     -0.1185717225
C      -0.6297668341     -1.3317873891     -0.1376695652
C       0.7861914128     -1.3633176046     -0.0716952947
H       2.5973737884     -0.2255762514      0.0707965498
H       1.3141068710      2.1142843911     -0.0305173093
H      -1.2699913608      2.0417227744     -0.1461252093
H      -2.4129497426     -0.0833799784     -0.0868002160
H      -1.2171970153     -2.2511740623     -0.1862667742
H       1.3166220470     -2.3038981091     -0.0514432761
12
step 15  E = -12.75826220 Ha  |g|max = 0.030692
C       1.5189017860     -0.1153132975     -0.0039178021
C       0.8164191908      1.1593269275     -0.0508630143
C      -0.6473507390      1.1581557980     -0.1115526649
C      -1.3430605528     -0.0831666959     -0.1183878263
C      -0.6562256946     -1.3509918703     -0.1379955327
C       0.8088150057     -1.3564254726     -0.0702322846
H       2.6009496742     -0.2162161169      0.0705597517
H       1.3162616731      2.1094619197     -0.0303334564
H      -1.2586215806      2.0437375915     -0.1447744709
H      -2.4202909241     -0.0847826984     -0.0893846266
H      -1.2085606107     -2.2440370121     -0.1847633194
H       1.3143929391     -2.2999732392     -0.0519732975
12
step 16  E = -12.75874136 Ha  |g|max = 0.030560
C       1.5326945079     -0.1116797162     -0.0036265717
C       0.8039976957      1.1583816311     -0.0514689230
C      -0.6332235601      1.1640473994     -0.1104298015
C      -1.3571704335     -0.0981495983     -0.1182900779
C      -0.6334705284     -1.3354121568     -0.1355313629
C       0.7823561452     -1.3622918270     -0.0715552266
H       2.5925734256     -0.2065921918      0.0694673407
H       1.3202872223      2.1066455311     -0.0300298765
H      -1.2508667522      2.0463096815     -0.1434985594
H      -2.4183393381     -0.0839793731     -0.0921328762
H      -1.2152309973     -2.2578314434     -0.1844209480
H       1.3180227876     -2.2996720986     -0.0521016614
12
step 17  E = -12.75909969 Ha  |g|max = 0.030968
C       1.5150971499     -0.1155040917     -0.0054682006
C       0.8156237292      1.1573384753     -0.0508306577
C      -0.6474407393      1.1530785680     -0.1100819731
C      -1.3466799430     -0.0852628350     -0.1181910923
C      -0.6599293889     -1.3532658265     -0.1360141475
C       0.8062395466     -1.3559529033     -0.0700124302
H       2.5973209436     -0.1990490810      0.0692173114
H       1.3212226573      2.1016175828     -0.0299143591
H      -1.2420634832      2.0490149901     -0.1423031881
H      -2.4261506025     -0.0853507275     -0.0944742970
H      -1.2070875861     -2.2506906891     -0.1829415881
H       1.3154778981     -2.2961976188     -0.0526039226
12
step 18  E = -12.75943241 Ha  |g|max = 0.030222
C       1.5298057004     -0.1109211673     -0.0049777900
C       0.8020985058      1.1547725316     -0.0514031452
C      -0.6324010448      1.1614851309     -0.1090606956
C      -1.3622687771     -0.1003101131     -0.1182009103
C      -0.6365894142     -1.3385253290     -0.1337513357
C       0.7797806861     -1.3620348255     -0.0712640765
H       2.5894929518     -0.1913705446      0.0680793198
H       1.3251659676      2.1005139147     -0.0296241932
H      -1.2361015322      2.0509251143     -0.1411402976
H      -2.4228580175     -0.0845145083     -0.0969851675
H      -1.2136019048     -2.2634414161     -0.1825915002
H       1.3191070667     -2.2968029413     -0.0526987537
12
step 19  E = -12.75954366 Ha  |g|max = 0.031555
C       1.5121869884     -0.1159497340     -0.0066981158
C       0.8150681471      1.1556194999     -0.0506644396
C      -0.6482013245      1.1495149181     -0.1088498086
C      -1.3494867762     -0.0867744139     -0.1181578777
C      -0.6630482747     -1.3552366687     -0.1343297163
C       0.8045082765     -1.3556169228     -0.0696655855
H       2.5950226390     -0.1851156481      0.0678091681
H       1.3251068535      2.0952203382     -0.0295550642
H      -1.2289907211      2.0539122960     -0.1400483346
H      -2.4311435416     -0.0858603413     -0.0991624023
H      -1.2057689026     -2.2561645258     -0.1811266546
H       1.3163768295     -2.2937729472     -0.0531697147
12
step 20  E = -12.75988473 Ha  |g|max = 0.029594
C       1.5277715611     -0.1103924125     -0.0060490756
C       0.8003989710      1.1517981172     -0.0512272165
C      -0.6320263902      1.1596927415     -0.1078919655
C      -1.3664001313     -0.1018006457     -0.1182658691
C      -0.6391574124     -1.3410599026     -0.1322289498
C       0.7780494160     -1.3622123716     -0.0708745566
H       2.5874114768     -0.1790575247      0.0666406821
H       1.3290082778      2.0954887412     -0.0292692084
H      -1.2245150615      2.0552170329     -0.1389980893
H      -2.4266375091     -0.0850187009     -0.1014353463
H      -1.2121646276     -2.2680174283     -0.1807889203
H       1.3198916277     -2.2948617934     -0.0532300314
12
step 21  E = -12.76166660 Ha  |g|max = 0.005908
C       1.5188211924     -0.1134818504     -0.0068747355
C       0.8075546425      1.1529958218     -0.0508136737
C      -0.6406753686      1.1533068480     -0.1078439758
C      -1.3590220210     -0.0948000428     -0.1182598974
C      -0.6523868427     -1.3489661175     -0.1325506925
C       0.7907229726     -1.3587749909     -0.0700551496
H       2.5904744952     -0.1764115595      0.0664956876
H       1.3285563740      2.0926947266     -0.0292504251
H      -1.2215521720      2.0567445961     -0.1384894267
H      -2.4309855599     -0.0856826792     -0.1024655664
H      -1.2083550240     -2.2642831739     -0.1800623490
H       1.3184775120     -2.2935657237     -0.0534483426
12
step 22  E = -12.76184480 Ha  |g|max = 0.016179
C       1.5198993648     -0.1126599962     -0.0088266837
C       0.7988548576      1.1459976475     -0.0503601451
C      -0.6357478362      1.1503363174     -0.1050329430
C      -1.3718754052     -0.0987152504     -0.1186501472
C      -0.6501211927     -1.3550793959     -0.1287903530
C       0.7781186719     -1.3596013603     -0.0693500960
H       2.5832923126     -0.1499526990      0.0624000657
H       1.3367382781      2.0819724602     -0.0283747619
H      -1.1978223203      2.0666805601     -0.1333614452
H      -2.4358289421     -0.0869292170     -0.1133073626
H      -1.2044850414     -2.2719092817     -0.1753653915
H       1.3206074753     -2.2903639160     -0.0545992855
12
step 23  E = -12.76196231 Ha  |g|max = 0.013927
C       1.5096376994     -0.1142330130     -0.0096956606
C       0.8091269765      1.1472563895     -0.0496945496
C      -0.6469846635      1.1468671542     -0.1050645263
C      -1.3614597207     -0.0975318986     -0.1188139711
C      -0.6618625268     -1.3520357028     -0.1286765401
C       0.7913481022     -1.3591724127     -0.0684362066
H       2.5874164164     -0.1477386438      0.0619485844
H       1.3353164402      2.0783933113     -0.0283334497
H      -1.1946386034      2.0672231482     -0.1325858031
H      -2.4414921526     -0.0872619728     -0.1148435731
H      -1.2035298252     -2.2732752018     -0.1745934241
H       1.3187520818     -2.2887152885     -0.0548294296
12
step 24  E = -12.76242254 Ha  |g|max = 0.002506
C       1.5149002080     -0.1137902874     -0.0094825693
C       0.8028238439      1.1463856600     -0.0498439087
C      -0.6408163671      1.1486958583     -0.1046856400
C      -1.3680744358     -0.0980533696     -0.1189591798
C      -0.6559072834     -1.3531043814     -0.1282326056
C       0.7850330361     -1.3594046042     -0.0685951727
H       2.5850707777     -0.1464409798      0.0613696433
H       1.3366056440      2.0789386320     -0.0282016111
H      -1.1943103208      2.0681702711     -0.1321920920
H      -2.4393098847     -0.0874017637     -0.1157490334
H      -1.2041490301     -2.2743272187     -0.1741945338
H       1.3197640375     -2.2898919470     -0.0548518466
12
step 25  E = -12.76246032 Ha  |g|max = 0.003627
C       1.5132738378     -0.1139489073     -0.0099119832
C       0.8040037368      1.1457450212     -0.0494353673
C      -0.6430507134      1.1483327585     -0.1042565053
C      -1.3670713311     -0.0979615631     -0.1192753475
C      -0.6584376622     -1.3533943837     -0.1276434864
C       0.7868796786     -1.3594327930     -0.0681010203
H       2.5854355123     -0.1431336222      0.0602267071
H       1.3369776457      2.0768773965     -0.0279912896
H      -1.1913386333      2.0696404174     -0.1310601964
H      -2.4412914145     -0.0877957613     -0.1181655627
H      -1.2032849188     -2.2751581782     -0.1729656761
H       1.3195344900     -2.2899945136     -0.0550388224
12
step 26  E = -12.76248385 Ha  |g|max = 0.003887
C       1.5151719371     -0.1138679836     -0.0100087085
C       0.8010698351      1.1451171672     -0.0493167749
C      -0.6404564402      1.1487355276     -0.1038463078
C      -1.3703786886     -0.0983254558     -0.1195265341
C      -0.6556631709     -1.3534776171     -0.1271023539
C       0.7839729963     -1.3598449096     -0.0679754199
H       2.5845087848     -0.1411226484      0.0593676365
H       1.3378011951      2.0763651080     -0.0278072419
H      -1.1901424123      2.0709727252     -0.1303419028
H      -2.4407095081     -0.0880251346     -0.1197585572
H      -1.2034184163     -2.2762484873     -0.1721880468
H       1.3198741175     -2.2905024198     -0.0551143391
12
step 27  E = -12.76250785 Ha  |g|max = 0.003903
C       1.5127648940     -0.1141514503     -0.0103530791
C       0.8035921181      1.1448455855     -0.0489800560
C      -0.6437114920      1.1481475823     -0.1036615557
C      -1.3678882768     -0.0980862630     -0.1197193348
C      -0.6589705285     -1.3536248082     -0.1268337610
C       0.7869095016     -1.3597736640     -0.0675945671
H       2.5853656407     -0.1394522556      0.0586869262
H       1.3376798269      2.0750427798     -0.0276729946
H      -1.1884030028      2.0715322951     -0.1296731904
H      -2.4425151656     -0.0882557601     -0.1211873098
H      -1.2025780344     -2.2761926638     -0.1714235473
H       1.3193847495     -2.2902555050     -0.0552060811
12
step 28  E = -12.76252954 Ha  |g|max = 0.003801
C       1.5149793112     -0.1140274903     -0.0104068192
C       0.8004968246      1.1443249998     -0.0488888994
C      -0.6408598213      1.1486406544     -0.1032890207
C      -1.3711956343     -0.0984527290     -0.1199625784
C      -0.6559804871     -1.3536665729     -0.1263502768
C       0.7838152158     -1.3601343713     -0.0675096383
H       2.5843270771     -0.1379084102      0.0578922583
H       1.3384192454      2.0747730347     -0.0274909822
H      -1.1876058841      2.0726176973     -0.1290562424
H      -2.4417145271     -0.0884563219     -0.1225697475
H      -1.2027959495     -2.2771154337     -0.1707418003
H       1.3197448613     -2.2908191837     -0.0552448041
12
step 29  E = -12.76254523 Ha  |g|max = 0.003915
C       1.5124442092     -0.1143061526     -0.0107525092
C       0.8031525364      1.1441000071     -0.0485469775
C      -0.6441369168      1.1480470713     -0.1031211752
C      -1.3686154198     -0.0981854754     -0.1201552895
C      -0.6592878447     -1.3537526403     -0.1261049082
C       0.7868695312     -1.3600339159     -0.0671340797
H       2.5852764603     -0.1364867367      0.0572154076
H       1.3382124943      2.0735518601     -0.0273458109
H      -1.1860801354      2.0730457012     -0.1284196750
H      -2.4434237905     -0.0886795146     -0.1239436477
H      -1.2019932931     -2.2769622563     -0.1699988211
H       1.3192124019     -2.2905620741     -0.0553110648
12
step 30  E = -12.76256237 Ha  |g|max = 0.003884
C       1.5148657580     -0.1141625963     -0.0107875612
C       0.7999490293      1.1436496073     -0.0484658364
C      -0.6411431923      1.1485789167     -0.1027643729
C      -1.3719227774     -0.0985417970     -0.1204025131
C      -0.6561497246     -1.3537714813     -0.1256470069
C       0.7836508208     -1.3603964626     -0.0670685892
H       2.5841729737     -0.1352069559      0.0564360862
H       1.3389111543      2.0734301658     -0.0271559601
H      -1.1855123684      2.0739988933     -0.1278488712
H      -2.4425015154     -0.0888647927     -0.1252337755
H      -1.2022646548     -2.2777953825     -0.1693560393
H       1.3195747308     -2.2911422406     -0.0553241121
12
step 31  E = -12.76257611 Ha  |g|max = 0.003792
C       1.5122497348     -0.1144338761     -0.0111250357
C       0.8027217568      1.1434707228     -0.0481308850
C      -0.6444330507      1.1479976848     -0.1026231265
C      -1.3692542883     -0.0982590636     -0.1205835382
C      -0.6594570822     -1.3538241059     -0.1254380253
C       0.7867865205     -1.3602535195     -0.0667095295
H       2.5851947535     -0.1340487751      0.0557956519
H       1.3386310971      2.0723326234     -0.0270073311
H      -1.1842062420      2.0742868487     -0.1272678851
H      -2.4441197156     -0.0890690334     -0.1264991199
H      -1.2015056576     -2.2775470470     -0.1686644385
H       1.3190224084     -2.2908765844     -0.0553652890
12
step 32  E = -12.76258574 Ha  |g|max = 0.004072
C       1.5148222124     -0.1142759888     -0.0111529145
C       0.7994379789      1.1430772190     -0.0480520432
C      -0.6413378341      1.1485444655     -0.1022723267
C      -1.3725616458     -0.0986057408     -0.1208400862
C      -0.6562178253     -1.3538234737     -0.1249922442
C       0.7834830358     -1.3606293869     -0.0666535775
H       2.5840469496     -0.1329465775      0.0550096375
H       1.3393030075      2.0723098990     -0.0268046503
H      -1.1837964696      2.0751586506     -0.1267193404
H      -2.4431157088     -0.0892451603     -0.1277484211
H      -1.2018161521     -2.2783244212     -0.1680358898
H       1.3193826871     -2.2914636099     -0.0553566956
12
step 33  E = -12.76260242 Ha  |g|max = 0.003646
C       1.5121478854     -0.1145399019     -0.0114779794
C       0.8023093172      1.1429397658     -0.0477306964
C      -0.6446357805      1.1479821956     -0.1021605952
C      -1.3698177250     -0.0983146007     -0.1210031520
C      -0.6595251828     -1.3538573360     -0.1248230990
C       0.7866771937     -1.3604436707     -0.0663156356
H       2.5851263486     -0.1320264060      0.0544220175
H       1.3389642372      2.0713298302     -0.0266578542
H      -1.1826833825      2.0753178052     -0.1262015816
H      -2.4446569753     -0.0894258313     -0.1288853175
H      -1.2011004960     -2.2779988091     -0.1674082620
H       1.3188247962     -2.2911871657     -0.0553763969
12
step 34  E = -12.76260445 Ha  |g|max = 0.004198
C       1.5147909917     -0.1143737124     -0.0115058154
C       0.7990192091      1.1425989549     -0.0476503564
C      -0.6415171693      1.1485218946     -0.1018156080
C      -1.3730683531     -0.0986452952     -0.1212683585
C      -0.6562696524     -1.3538418546     -0.1243885184
C       0.7833698361     -1.3608291908     -0.0662638077
H       2.5839658623     -0.1310681300      0.0536274373
H       1.3396060381      2.0713767733     -0.0264418676
H      -1.1823946042      2.0761221743     -0.1256692660
H      -2.4436119182     -0.0895936296     -0.1301058661
H      -1.2014348477     -2.2787252889     -0.1667883972
H       1.3191748445     -2.2917668200     -0.0553481285
12
step 35  E = -12.76262335 Ha  |g|max = 0.003548
C       1.5120701551     -0.1146319169     -0.0118219894
C       0.8019664295      1.1424890238     -0.0473399078
C      -0.6448223606      1.1479797355     -0.1017264061
C      -1.3702718427     -0.0983521462     -0.1214168634
C      -0.6595770100     -1.3538647070     -0.1242494231
C       0.7866038800     -1.3606072922     -0.0659425501
H       2.5850896546     -0.1303229415      0.0530791771
H       1.3392257673      2.0704854098     -0.0262951030
H      -1.1814213424      2.0761839246     -0.1251994097
H      -2.4450968743     -0.0897547455     -0.1311458794
H      -1.2007532177     -2.2783462169     -0.1662097704
H       1.3186169988     -2.2914822516     -0.0553504273
12
step 36  E = -12.76265744 Ha  |g|max = 0.001255
C       1.5134199960     -0.1145448282     -0.0118354723
C       0.8003208930      1.1423435433     -0.0473006274
C      -0.6432520343      1.1482442699     -0.1015580040
C      -1.3718715599     -0.0985099066     -0.1215518395
C      -0.6579438099     -1.3538518696     -0.1240391672
C       0.7849502012     -1.3608037172     -0.0659198312
H       2.5845053331     -0.1299114321      0.0526828175
H       1.3395334234      2.0705418290     -0.0261818131
H      -1.1813331116      2.0765552728     -0.1249441177
H      -2.4445557719     -0.0898330369     -0.1317351684
H      -1.2009325930     -2.2786880995     -0.1659082233
H       1.3187892717     -2.2917661488     -0.0553271063
12
step 37  E = -12.76266559 Ha  |g|max = 0.003834
C       1.5116920871     -0.1149255972     -0.0129676408
C       0.8012055614      1.1412171491     -0.0460522531
C      -0.6456026695      1.1479322873     -0.1003593624
C      -1.3713090894     -0.0983960239     -0.1227861860
C      -0.6599189226     -1.3538344159     -0.1224535466
C       0.7866558955     -1.3610398316     -0.0647429815
H       2.5850906822     -0.1254994217      0.0486740358
H       1.3398659467      2.0680361065     -0.0250378587
H      -1.1778689765      2.0785957544     -0.1220268400
H      -2.4463401107     -0.0907689436     -0.1383498836
H      -1.1997080949     -2.2791779148     -0.1623620173
H       1.3178679317     -2.2923632711     -0.0551540199
12
step 38  E = -12.76266796 Ha  |g|max = 0.003976
C       1.5145290054     -0.1146920843     -0.0129658386
C       0.7979378221      1.1410561659     -0.0460140143
C      -0.6423836574      1.1484693903     -0.1000820615
C      -1.3743283026     -0.0987067326     -0.1230315292
C      -0.6566246691     -1.3537597863     -0.1221194219
C       0.7833485380     -1.3614583139     -0.0647485978
H       2.5839209646     -0.1251604980      0.0480063497
H       1.3404077989      2.0684077983     -0.0248127685
H      -1.1780748279      2.0791074575     -0.1216609610
H      -2.4451571795     -0.0908613207     -0.1392189631
H      -1.2001716521     -2.2797551000     -0.1619105319
H       1.3182264010     -2.2928710988     -0.0550602158
12
step 39  E = -12.76267450 Ha  |g|max = 0.003798
C       1.5117070318     -0.1149675731     -0.0132700571
C       0.8010686499      1.1410476073     -0.0457236108
C      -0.6456859488      1.1479737431     -0.1000423178
C      -1.3714523329     -0.0983885631     -0.1231507257
C      -0.6599030711     -1.3537957544     -0.1220459477
C       0.7866558955     -1.3611145872     -0.0644666873
H       2.5851570834     -0.1248527668      0.0475099064
H       1.3399229965      2.0677384817     -0.0246402693
H      -1.1774604509      2.0789309068     -0.1212933739
H      -2.4464794370     -0.0909707842     -0.1400658053
H      -1.1995849690     -2.2792465971     -0.1614299540
H       1.3176847943     -2.2925782355     -0.0549997116
12
step 40  E = -12.76267502 Ha  |g|max = 0.004008
C       1.5145651900     -0.1147246672     -0.0132674511
C       0.7978035925      1.1409056375     -0.0456915688
C      -0.6424573640      1.1484903734     -0.0997723756
C      -1.3744620451     -0.0986935790     -0.1233947585
C      -0.6566135863     -1.3537201002     -0.1217230111
C       0.7833485380     -1.3615409487     -0.0644785545
H       2.5839752416     -0.1245656792      0.0468578554
H       1.3404582018      2.0681330907     -0.0244126741
H      -1.1777050346      2.0794224061     -0.1209467530
H      -2.4452724088     -0.0910516836     -0.1408923860
H      -1.2000577853     -2.2798124154     -0.1609990787
H       1.3180477020     -2.2930665568     -0.0548977983
12
step 41  E = -12.76268227 Ha  |g|max = 0.003770
C       1.5117241567     -0.1150004472     -0.0135665808
C       0.8009562500      1.1409019964     -0.0454101341
C      -0.6457627421      1.1480032468     -0.0997438843
C      -1.3715706528     -0.0983811523     -0.1235037798
C      -0.6598904204     -1.3537559469     -0.1216631753
C       0.7866558955     -1.3611767222     -0.0642062389
H       2.5852202969     -0.1243062203      0.0463853492
H       1.3399652767      2.0674881629     -0.0242414181
H      -1.1771213534      2.0792127958     -0.1206026743
H      -2.4465808371     -0.0911485180     -0.1416890792
H      -1.1994825857     -2.2792957579     -0.1605459584
H       1.3175169577     -2.2927655597     -0.0548309805
12
step 42  E = -12.76271819 Ha  |g|max = 0.000905
C       1.5131614220     -0.1148761646     -0.0135646767
C       0.7993225022      1.1408399223     -0.0453974061
C      -0.6441420903      1.1482559018     -0.0996125373
C      -1.3730695084     -0.0985310020     -0.1236247434
C      -0.6582466086     -1.3537197282     -0.1215071078
C       0.7850022167     -1.3613930383     -0.0642152588
H       2.5846252610     -0.1241849492      0.0460678203
H       1.3402301787      2.0676953170     -0.0241269773
H      -1.1772597325      2.0794487626     -0.1204386690
H      -2.4459708490     -0.0911836976     -0.1420815297
H      -1.1997232668     -2.2795744502     -0.1603407974
H       1.3177007171     -2.2930009960     -0.0547766714
