12
benzene_dist optimised  E = -12.76271819 Ha  |g|max = 0.000905 Ha/a0
C       1.5131614220     -0.1148761646     -0.0135646767
C       0.7993225022      1.1408399223     -0.0453974061
C      -0.6441420903      1.1482559018     -0.0996125373
C      -1.3730695084     -0.0985310020     -0.1236247434
C      -0.6582466086     -1.3537197282     -0.1215071078
C       0.7850022167     -1.3613930383     -0.0642152588
H       2.5846252610     -0.1241849492      0.0460678203
H       1.3402301787      2.0676953170     -0.0241269773
H      -1.1772597325      2.0794487626     -0.1204386690
H      -2.4459708490     -0.0911836976     -0.1420815297
H      -1.1997232668     -2.2795744502     -0.1603407974
H       1.3177007171     -2.2930009960     -0.0547766714
