12
benzene optimised  E = -12.76278134 Ha  |g|max = 0.000752 Ha/a0
C       1.4435567554     -0.0000000000      0.0000000000
C       0.7217784449      1.2501568554      0.0000000000
C      -0.7217784449      1.2501568554      0.0000000000
C      -1.4435567554      0.0000000000      0.0000000000
C      -0.7217784449     -1.2501568554      0.0000000000
C       0.7217784449     -1.2501568554      0.0000000000
H       2.5165928682     -0.0000000000      0.0000000000
H       1.2582961004      2.1794334555      0.0000000000
H      -1.2582961004      2.1794334555      0.0000000000
H      -2.5165928682     -0.0000000000      0.0000000000
H      -1.2582961005     -2.1794334555      0.0000000000
H       1.2582961004     -2.1794334555      0.0000000000
