14
step 0  E = -11.00129199 Ha
C      -0.0411539598     -0.0015233961      0.4342189666
C       1.2641733458     -0.0026194051     -0.4549241954
C       2.5592143808      0.0026194051      0.4549241954
C       3.8645416864      0.0015233961     -0.4342189667
H      -0.3380568320      1.0160074058      0.6433609331
H       0.1459796422     -0.5109819176      1.3657690717
H      -0.8434040980     -0.5057589115     -0.0900357378
H       1.2707360863      0.8713124343     -1.0891992898
H       1.2743796705     -0.8776773896     -1.0863614212
H       2.5526516403     -0.8713124343      1.0891992898
H       2.5490080561      0.8776773896      1.0863614212
H       4.1614445586     -1.0160074058     -0.6433609331
H       4.6667918246      0.5057589114      0.0900357378
H       3.6774080844      0.5109819176     -1.3657690717
14
step 1  E = -11.00135127 Ha  |g|max = 0.001564
C      -0.0423523198     -0.0015971952      0.4312332261
C       1.2642466204     -0.0024299100     -0.4516168379
C       2.5591411062      0.0024299100      0.4516168378
C       3.8657400464      0.0015971952     -0.4312332262
H      -0.3387620536      1.0161201476      0.6437779159
H       0.1453216667     -0.5118080590      1.3671886141
H      -0.8434709063     -0.5050427302     -0.0892030869
H       1.2704077566      0.8717487241     -1.0897759719
H       1.2741782478     -0.8785750036     -1.0869205515
H       2.5529799700     -0.8717487241      1.0897759719
H       2.5492094788      0.8785750036      1.0869205515
H       4.1621497802     -1.0161201476     -0.6437779159
H       4.6668586329      0.5050427302      0.0892030869
H       3.6780660599      0.5118080590     -1.3671886142
14
step 2  E = -11.00137232 Ha  |g|max = 0.001768
C      -0.0427540359     -0.0016220873      0.4328750215
C       1.2637601624     -0.0026991807     -0.4529217281
C       2.5596275642      0.0026991807      0.4529217281
C       3.8661417625      0.0016220873     -0.4328750215
H      -0.3397585302      1.0158750590      0.6440053625
H       0.1436679879     -0.5116967511      1.3666131427
H      -0.8449839043     -0.5049443405     -0.0894050142
H       1.2699429060      0.8711306733     -1.0894733421
H       1.2738573169     -0.8782192872     -1.0863415229
H       2.5534448206     -0.8711306733      1.0894733421
H       2.5495304097      0.8782192872      1.0863415229
H       4.1631462568     -1.0158750590     -0.6440053625
H       4.6683716309      0.5049443404      0.0894050142
H       3.6797197387      0.5116967511     -1.3666131427
14
step 3  E = -11.00137330 Ha  |g|max = 0.003804
C      -0.0446680197     -0.0017514295      0.4302890269
C       1.2635149116     -0.0026115361     -0.4496143705
C       2.5598728150      0.0026115361      0.4496143705
C       3.8680557463      0.0017514295     -0.4302890269
H      -0.3414038006      1.0158355226      0.6447164882
H       0.1414831719     -0.5127181575      1.3680270463
H      -0.8461303753     -0.5039005097     -0.0885657930
H       1.2690768514      0.8711831065     -1.0899192177
H       1.2732786849     -0.8791647862     -1.0865435674
H       2.5543108751     -0.8711831065      1.0899192177
H       2.5501090416      0.8791647862      1.0865435674
H       4.1647915271     -1.0158355226     -0.6447164882
H       4.6695181019      0.5039005096      0.0885657929
H       3.6819045547      0.5127181575     -1.3680270463
14
step 4  E = -11.00140902 Ha  |g|max = 0.002689
C      -0.0444225806     -0.0016932518      0.4335963845
C       1.2629017199     -0.0030467139     -0.4526848663
C       2.5604860067      0.0030467138      0.4526848663
C       3.8678103072      0.0016932518     -0.4335963845
H      -0.3420791545      1.0155195515      0.6447417293
H       0.1400218467     -0.5122163063      1.3667134009
H      -0.8476846293     -0.5041701602     -0.0893112210
H       1.2686966173      0.8703209294     -1.0892777133
H       1.2729907853     -0.8783500511     -1.0855720572
H       2.5546911093     -0.8703209294      1.0892777133
H       2.5503969412      0.8783500510      1.0855720572
H       4.1654668811     -1.0155195515     -0.6447417293
H       4.6710723559      0.5041701602      0.0893112210
H       3.6833658799      0.5122163063     -1.3667134009
14
step 5  E = -11.00141466 Ha  |g|max = 0.003238
C      -0.0458697857     -0.0018518178      0.4307959768
C       1.2629367854     -0.0028396939     -0.4493775087
C       2.5604509412      0.0028396939      0.4493775087
C       3.8692575123      0.0018518178     -0.4307959768
H      -0.3429891369      1.0156263372      0.6452386430
H       0.1388641297     -0.5131305334      1.3681226706
H      -0.8478943565     -0.5033101513     -0.0886064530
H       1.2681102080      0.8706090708     -1.0897334289
H       1.2725861461     -0.8793292107     -1.0859176228
H       2.5552775186     -0.8706090708      1.0897334289
H       2.5508015805      0.8793292107      1.0859176228
H       4.1663768635     -1.0156263372     -0.6452386431
H       4.6712820832      0.5033101513      0.0886064530
H       3.6845235969      0.5131305334     -1.3681226706
14
step 6  E = -11.00143172 Ha  |g|max = 0.003226
C      -0.0456220629     -0.0017425437      0.4341033344
C       1.2622631327     -0.0033240907     -0.4523884976
C       2.5611245939      0.0033240907      0.4523884976
C       3.8690097895      0.0017425437     -0.4341033344
H      -0.3436811343      1.0152840745      0.6452788538
H       0.1373027641     -0.5126750756      1.3668376832
H      -0.8494655123     -0.5035585738     -0.0894196735
H       1.2676623829      0.8697411580     -1.0890764111
H       1.2722437671     -0.8785359149     -1.0848819775
H       2.5557253437     -0.8697411580      1.0890764110
H       2.5511439595      0.8785359149      1.0848819775
H       4.1670688609     -1.0152840745     -0.6452788538
H       4.6728532390      0.5035585738      0.0894196735
H       3.6860849625      0.5126750756     -1.3668376833
14
step 7  E = -11.00144681 Ha  |g|max = 0.002833
C      -0.0469233566     -0.0019248749      0.4312182075
C       1.2624053031     -0.0030487265     -0.4490811401
C       2.5609824235      0.0030487264      0.4490811400
C       3.8703110832      0.0019248749     -0.4312182075
H      -0.3443455450      1.0154474840      0.6457107032
H       0.1364889519     -0.5135563866      1.3682491956
H      -0.8493599560     -0.5027543569     -0.0887509133
H       1.2671709004      0.8700936655     -1.0895361748
H       1.2718997318     -0.8795372504     -1.0852864051
H       2.5562168262     -0.8700936655      1.0895361747
H       2.5514879948      0.8795372504      1.0852864051
H       4.1677332715     -1.0154474840     -0.6457107033
H       4.6727476826      0.5027543569      0.0887509133
H       3.6868987747      0.5135563866     -1.3682491956
14
step 8  E = -11.00145058 Ha  |g|max = 0.003590
C      -0.0466833737     -0.0017917277      0.4345255651
C       1.2616971515     -0.0035882507     -0.4520336173
C       2.5616905751      0.0035882507      0.4520336173
C       3.8700711003      0.0017917277     -0.4345255651
H      -0.3450428397      1.0150931343      0.6457673030
H       0.1348476908     -0.5131405035      1.3669836620
H      -0.8509245144     -0.5029763905     -0.0896245743
H       1.2666639976      0.8692271007     -1.0888730054
H       1.2715076470     -0.8787628841     -1.0841914610
H       2.5567237290     -0.8692271007      1.0888730054
H       2.5518800796      0.8787628841      1.0841914610
H       4.1684305663     -1.0150931343     -0.6457673030
H       4.6743122410      0.5029763904      0.0896245743
H       3.6885400358      0.5131405035     -1.3669836620
14
step 9  E = -11.00147357 Ha  |g|max = 0.002542
C      -0.0479044300     -0.0019886377      0.4315869533
C       1.2618982452     -0.0032524205     -0.4487262597
C       2.5614894814      0.0032524205      0.4487262597
C       3.8712921566      0.0019886377     -0.4315869533
H      -0.3455693703      1.0152887959      0.6461659891
H       0.1342238956     -0.5140072107      1.3683991983
H      -0.8506446961     -0.5022010763     -0.0889739378
H       1.2662251191      0.8696044228     -1.0893331641
H       1.2711987253     -0.8797871909     -1.0846350485
H       2.5571626075     -0.8696044229      1.0893331641
H       2.5521890013      0.8797871908      1.0846350485
H       4.1689570969     -1.0152887959     -0.6461659891
H       4.6740324227      0.5022010762      0.0889739378
H       3.6891638310      0.5140072107     -1.3683991983
14
step 10  E = -11.00149565 Ha  |g|max = 0.000942
C      -0.0477868050     -0.0019160410      0.4332406321
C       1.2615359485     -0.0035510330     -0.4501783074
C       2.5618517781      0.0035510330      0.4501783074
C       3.8711745316      0.0019160410     -0.4332406321
H      -0.3459126212      1.0151095572      0.6462017953
H       0.1333769624     -0.5138162925      1.3677728760
H      -0.8514139738     -0.5022996409     -0.0894388776
H       1.2659479964      0.8691740777     -1.0890017332
H       1.2709819626     -0.8794073510     -1.0840608504
H       2.5574397302     -0.8691740777      1.0890017332
H       2.5524057640      0.8794073510      1.0840608504
H       4.1693003478     -1.0151095572     -0.6462017954
H       4.6748017004      0.5022996408      0.0894388776
H       3.6900107642      0.5138162925     -1.3677728760
