14
step 0  E = -10.99543524 Ha
C       0.0000000000      0.0000000000      0.4241774816
C       1.2744625755      0.0000000000     -0.4241774816
C       2.5489251511      0.0000000000      0.4241774816
C       3.8233877266      0.0000000000     -0.4241774816
H      -0.3024342478      1.0276695956      0.6254949624
H       0.1907242872     -0.5138347978      1.3663547722
H      -0.7955927827     -0.5138347978     -0.1153648473
H       1.2744625755      0.8762039781     -1.0725343192
H       1.2744625755     -0.8762039781     -1.0725343192
H       2.5489251511     -0.8762039781      1.0725343192
H       2.5489251511      0.8762039781      1.0725343192
H       4.1258219744     -1.0276695956     -0.6254949624
H       4.6189805093      0.5138347978      0.1153648473
H       3.6326634394      0.5138347978     -1.3663547722
14
step 1  E = -10.99914816 Ha  |g|max = 0.005708
C      -0.0166798634     -0.0002168227      0.4353595553
C       1.2736187441     -0.0001713151     -0.4506363421
C       2.5497689825      0.0001713151      0.4506363421
C       3.8400675900      0.0002168227     -0.4353595553
H      -0.3028526434      1.0237961553      0.6259601974
H       0.1877467004     -0.5119699485      1.3639616584
H      -0.7943484226     -0.5117388918     -0.1123983934
H       1.2743680941      0.8738257688     -1.0712820785
H       1.2745264153     -0.8739912699     -1.0711200939
H       2.5490196325     -0.8738257687      1.0712820785
H       2.5488613114      0.8739912699      1.0711200939
H       4.1262403700     -1.0237961553     -0.6259601974
H       4.6177361492      0.5117388918      0.1123983934
H       3.6356410262      0.5119699485     -1.3639616584
14
step 2  E = -10.99966354 Ha  |g|max = 0.015791
C      -0.0252753712     -0.0002679339      0.4299945087
C       1.2656003643     -0.0004926828     -0.4460209453
C       2.5577873623      0.0004926828      0.4460209453
C       3.8486630978      0.0002679339     -0.4299945087
H      -0.3108578459      1.0213144712      0.6320423340
H       0.1785154211     -0.5116022648      1.3672881393
H      -0.8047050652     -0.5100788678     -0.1038252813
H       1.2748664717      0.8840702009     -1.0845115087
H       1.2756836185     -0.8851548784     -1.0840377524
H       2.5485212549     -0.8840702009      1.0845115088
H       2.5477041081      0.8851548784      1.0840377524
H       4.1342455725     -1.0213144712     -0.6320423340
H       4.6280927918      0.5100788678      0.1038252813
H       3.6448723055      0.5116022648     -1.3672881392
14
step 3  E = -11.00022602 Ha  |g|max = 0.007947
C      -0.0259492916     -0.0005938395      0.4373066695
C       1.2701873629     -0.0006765331     -0.4592503756
C       2.5532003637      0.0006765331      0.4592503756
C       3.8493370181      0.0005938395     -0.4373066695
H      -0.3137185476      1.0209848976      0.6332957115
H       0.1747947654     -0.5100277770      1.3649011935
H      -0.8106588047     -0.5111608366     -0.1036774084
H       1.2742887976      0.8790046225     -1.0823280883
H       1.2752760719     -0.8803561355     -1.0816986710
H       2.5490989290     -0.8790046224      1.0823280883
H       2.5481116546      0.8803561355      1.0816986710
H       4.1371062742     -1.0209848976     -0.6332957115
H       4.6340465313      0.5111608366      0.1036774084
H       3.6485929612      0.5100277770     -1.3649011935
14
step 4  E = -11.00046747 Ha  |g|max = 0.004489
C      -0.0263886889     -0.0006455258      0.4308413244
C       1.2692214682     -0.0007366267     -0.4526356604
C       2.5541662584      0.0007366267      0.4526356604
C       3.8497764155      0.0006455258     -0.4308413244
H      -0.3161899954      1.0208962904      0.6349316394
H       0.1727808847     -0.5109178996      1.3671478924
H      -0.8133397969     -0.5102695849     -0.1008818231
H       1.2743105647      0.8794529343     -1.0845669672
H       1.2755089199     -0.8811721926     -1.0838707453
H       2.5490771618     -0.8794529343      1.0845669672
H       2.5478788067      0.8811721926      1.0838707453
H       4.1395777220     -1.0208962904     -0.6349316394
H       4.6367275235      0.5102695849      0.1008818231
H       3.6506068419      0.5109178996     -1.3671478924
14
step 5  E = -11.00057628 Ha  |g|max = 0.008191
C      -0.0287792465     -0.0008233784      0.4361678456
C       1.2693500557     -0.0010641752     -0.4592503756
C       2.5540376709      0.0010641752      0.4592503756
C       3.8521669731      0.0008233783     -0.4361678456
H      -0.3197971370      1.0192027896      0.6364069668
H       0.1679016094     -0.5092830783      1.3644386680
H      -0.8196546685     -0.5102524658     -0.0990724305
H       1.2741640149      0.8763617430     -1.0847944867
H       1.2756842338     -0.8785656823     -1.0838578066
H       2.5492237117     -0.8763617430      1.0847944867
H       2.5477034928      0.8785656824      1.0838578066
H       4.1431848636     -1.0192027897     -0.6364069668
H       4.6430423951      0.5102524658      0.0990724305
H       3.6554861172      0.5092830783     -1.3644386680
14
step 6  E = -11.00077095 Ha  |g|max = 0.004139
C      -0.0300802378     -0.0008705663      0.4300820870
C       1.2684327220     -0.0010456762     -0.4526356605
C       2.5549550046      0.0010456762      0.4526356604
C       3.8534679644      0.0008705663     -0.4300820870
H      -0.3217239354      1.0192828722      0.6376113966
H       0.1664865963     -0.5104641122      1.3668851929
H      -0.8212486934     -0.5092199700     -0.0967324361
H       1.2741203904      0.8772803216     -1.0867962381
H       1.2758365139     -0.8798949585     -1.0858167081
H       2.5492673362     -0.8772803216      1.0867962381
H       2.5475512127      0.8798949585      1.0858167081
H       4.1451116620     -1.0192828722     -0.6376113966
H       4.6446364200      0.5092199700      0.0967324361
H       3.6569011303      0.5104641122     -1.3668851929
14
step 7  E = -11.00078524 Ha  |g|max = 0.008795
C      -0.0320319404     -0.0010295935      0.4361152258
C       1.2679608407     -0.0014619616     -0.4592503756
C       2.5554268859      0.0014619616      0.4592503756
C       3.8554196670      0.0010295935     -0.4361152258
H      -0.3250328601      1.0180268994      0.6386601947
H       0.1619584092     -0.5091117367      1.3642261502
H      -0.8271442372     -0.5093458735     -0.0958144534
H       1.2738338252      0.8746079556     -1.0866335264
H       1.2758672666     -0.8776854308     -1.0853411983
H       2.5495539013     -0.8746079557      1.0866335263
H       2.5475204600      0.8776854308      1.0853411982
H       4.1484205867     -1.0180268995     -0.6386601947
H       4.6505319638      0.5093458735      0.0958144534
H       3.6614293173      0.5091117366     -1.3642261502
14
step 8  E = -11.00098131 Ha  |g|max = 0.003466
C      -0.0335207310     -0.0010540902      0.4300071626
C       1.2674886363     -0.0013520646     -0.4526356604
C       2.5558990903      0.0013520646      0.4526356604
C       3.8569084576      0.0010540901     -0.4300071626
H      -0.3265223628      1.0182328822      0.6396026051
H       0.1610036875     -0.5104761896      1.3668608943
H      -0.8279149491     -0.5082595787     -0.0938084944
H       1.2736835827      0.8756536601     -1.0883039977
H       1.2758936278     -0.8791772085     -1.0869997598
H       2.5497041439     -0.8756536601      1.0883039977
H       2.5474940988      0.8791772085      1.0869997598
H       4.1499100894     -1.0182328822     -0.6396026051
H       4.6513026757      0.5082595787      0.0938084944
H       3.6623840391      0.5104761895     -1.3668608943
14
step 9  E = -11.00105281 Ha  |g|max = 0.003159
C      -0.0343014365     -0.0011526751      0.4332594565
C       1.2670401445     -0.0016226756     -0.4559430180
C       2.5563475821      0.0016226756      0.4559430180
C       3.8576891631      0.0011526750     -0.4332594565
H      -0.3281958952      1.0176826203      0.6400383921
H       0.1586437974     -0.5098543054      1.3654768715
H      -0.8308589657     -0.5083251213     -0.0935966534
H       1.2734294165      0.8743523478     -1.0880517826
H       1.2758113208     -0.8781223370     -1.0865326455
H       2.5499583101     -0.8743523478      1.0880517826
H       2.5475764058      0.8781223370      1.0865326454
H       4.1515836218     -1.0176826204     -0.6400383921
H       4.6542466923      0.5083251213      0.0935966534
H       3.6647439292      0.5098543054     -1.3654768715
14
step 10  E = -11.00110983 Ha  |g|max = 0.002740
C      -0.0359622703     -0.0012247039      0.4302984506
C       1.2667032444     -0.0016145490     -0.4526356604
C       2.5566844822      0.0016145490      0.4526356604
C       3.8593499969      0.0012247039     -0.4302984505
H      -0.3299492571      1.0175703047      0.6408569869
H       0.1569101226     -0.5106223817      1.3668097999
H      -0.8325024543     -0.5074854675     -0.0921068653
H       1.2731195063      0.8745018841     -1.0890146900
H       1.2757170244     -0.8787741101     -1.0873968441
H       2.5502682203     -0.8745018841      1.0890146900
H       2.5476707022      0.8787741101      1.0873968441
H       4.1533369837     -1.0175703047     -0.6408569869
H       4.6558901809      0.5074854675      0.0921068652
H       3.6664776040      0.5106223817     -1.3668097999
14
step 11  E = -11.00115189 Ha  |g|max = 0.003933
C      -0.0367385472     -0.0012752321      0.4336058081
C       1.2660673146     -0.0019452544     -0.4558349591
C       2.5573204120      0.0019452544      0.4558349591
C       3.8601262738      0.0012752321     -0.4336058081
H      -0.3317859817      1.0170135575      0.6413023258
H       0.1542674959     -0.5100927915      1.3654688001
H      -0.8356303384     -0.5075061018     -0.0920018437
H       1.2727242841      0.8731929433     -1.0886827187
H       1.2755289752     -0.8777777661     -1.0867854936
H       2.5506634425     -0.8731929433      1.0886827187
H       2.5478587514      0.8777777661      1.0867854936
H       4.1551737083     -1.0170135576     -0.6413023258
H       4.6590180650      0.5075061017      0.0920018437
H       3.6691202307      0.5100927915     -1.3654688001
14
step 12  E = -11.00120667 Ha  |g|max = 0.002136
C      -0.0381224738     -0.0013564967      0.4306484428
C       1.2659270790     -0.0018707263     -0.4525276015
C       2.5574606476      0.0018707263      0.4525276015
C       3.8615102004      0.0013564966     -0.4306484428
H      -0.3329847388      1.0170332289      0.6418949481
H       0.1531239478     -0.5108856996      1.3668349942
H      -0.8364416341     -0.5067389737     -0.0908660645
H       1.2724157129      0.8735191124     -1.0894397573
H       1.2753852128     -0.8785496022     -1.0874782266
H       2.5509720137     -0.8735191124      1.0894397573
H       2.5480025138      0.8785496022      1.0874782266
H       4.1563724654     -1.0170332289     -0.6418949481
H       4.6598293607      0.5067389737      0.0908660645
H       3.6702637788      0.5108856995     -1.3668349942
14
step 13  E = -11.00122699 Ha  |g|max = 0.004460
C      -0.0389816716     -0.0013953330      0.4339459578
C       1.2651168788     -0.0022751394     -0.4555127682
C       2.5582708478      0.0022751394      0.4555127682
C       3.8623693982      0.0013953330     -0.4339459578
H      -0.3350257769      1.0164680318      0.6423792467
H       0.1501101313     -0.5104671402      1.3655601343
H      -0.8397489917     -0.5066645383     -0.0908479914
H       1.2718353094      0.8722009504     -1.0890402025
H       1.2750550638     -0.8776347638     -1.0867099256
H       2.5515524171     -0.8722009504      1.0890402025
H       2.5483326628      0.8776347638      1.0867099256
H       4.1584135035     -1.0164680319     -0.6423792467
H       4.6631367183      0.5066645383      0.0908479914
H       3.6732775953      0.5104671401     -1.3655601343
14
step 14  E = -11.00128575 Ha  |g|max = 0.001739
C      -0.0402387272     -0.0014770833      0.4309739424
C       1.2651055888     -0.0021421329     -0.4522054106
C       2.5582821378      0.0021421329      0.4522054106
C       3.8636264538      0.0014770832     -0.4309739424
H      -0.3359167529      1.0165506047      0.6428579246
H       0.1492809908     -0.5112758281      1.3669538270
H      -0.8400967404     -0.5059323549     -0.0898984923
H       1.2715219303      0.8726064662     -1.0896872007
H       1.2748806010     -0.8784779545     -1.0873188224
H       2.5518657962     -0.8726064662      1.0896872007
H       2.5485071256      0.8784779545      1.0873188224
H       4.1593044795     -1.0165506047     -0.6428579246
H       4.6634844671      0.5059323548      0.0898984923
H       3.6741067358      0.5112758281     -1.3669538271
