14
step 15  E = -11.00129199 Ha
C      -0.0411539598     -0.0015233961      0.4342189666
C       1.2641733458     -0.0026194051     -0.4549241954
C       2.5592143808      0.0026194051      0.4549241954
C       3.8645416864      0.0015233961     -0.4342189667
H      -0.3380568320      1.0160074058      0.6433609331
H       0.1459796422     -0.5109819176      1.3657690717
H      -0.8434040980     -0.5057589115     -0.0900357378
H       1.2707360863      0.8713124343     -1.0891992898
H       1.2743796705     -0.8776773896     -1.0863614212
H       2.5526516403     -0.8713124343      1.0891992898
H       2.5490080561      0.8776773896      1.0863614212
H       4.1614445586     -1.0160074058     -0.6433609331
H       4.6667918246      0.5057589114      0.0900357378
H       3.6774080844      0.5109819176     -1.3657690717
