14
butane, distorted: 85deg tail twist + 12% expanded + 0.20A skeleton noise (seed 11)
C      -0.2011318636      0.2297385725      0.6878249625
C       1.1173662521     -0.1018048378     -0.6127536506
C       2.7607710237     -0.0534238233      0.5922578701
C       2.9045992742      1.8469737459      0.6754966394
H      -0.5035661114      1.2574081681      0.8891424433
H      -0.0104075764     -0.2840962253      1.6300022531
H      -0.9967246463     -0.2840962253      0.1482826336
H       1.1173662521      0.7743991403     -1.2611104882
H       1.1173662521     -0.9780088159     -1.2611104882
H       2.7607710237     -0.9296278014      1.2406147077
H       2.7607710237      0.8227801548      1.2406147077
H       3.6047808027      2.0912996627     -0.1233466954
H       3.4207400950      1.8835058229      1.6348527049
H       2.0869710253      2.5677954233      0.6751015890
