14
butane_restart optimised  E = -11.00149565 Ha  |g|max = 0.000942 Ha/a0
C      -0.0477868050     -0.0019160410      0.4332406321
C       1.2615359485     -0.0035510330     -0.4501783074
C       2.5618517781      0.0035510330      0.4501783074
C       3.8711745316      0.0019160410     -0.4332406321
H      -0.3459126212      1.0151095572      0.6462017953
H       0.1333769624     -0.5138162925      1.3677728760
H      -0.8514139738     -0.5022996409     -0.0894388776
H       1.2659479964      0.8691740777     -1.0890017332
H       1.2709819626     -0.8794073510     -1.0840608504
H       2.5574397302     -0.8691740777      1.0890017332
H       2.5524057640      0.8794073510      1.0840608504
H       4.1693003478     -1.0151095572     -0.6462017954
H       4.6748017004      0.5022996408      0.0894388776
H       3.6900107642      0.5138162925     -1.3677728760
