14
step 97  E = -10.83992472 Ha
C      -0.0318852446      0.1285211299      0.5843989818
C       1.1544566590     -0.0737066244     -0.4467946862
C       2.5831583601     -0.3256014937      0.1532636798
C       2.9515710856      1.9408066344      0.8824467615
H      -0.1976971521      1.1831993853      0.7624941862
H       0.1845326652     -0.3532704773      1.5268944565
H      -0.9403495963     -0.2972640218      0.1788489828
H       1.1741186367      0.7541617506     -1.1435371298
H       0.9511977776     -0.9683072336     -1.0259122764
H       2.3436007446     -0.8162511374      1.1008099925
H       2.5960403578      0.9107465666      1.1339689251
H       3.5438364083      1.9225601165     -0.0200278294
H       3.5491705217      2.2758941629      1.7184964187
H       2.0779258827      2.5613496595      0.7505168687
