14
n-butane, anti conformer
C       0.0000000000      0.0000000000      0.4241774816
C       1.2744625755      0.0000000000     -0.4241774816
C       2.5489251511      0.0000000000      0.4241774816
C       3.8233877266      0.0000000000     -0.4241774816
H      -0.3024342478      1.0276695956      0.6254949624
H       0.1907242872     -0.5138347978      1.3663547722
H      -0.7955927827     -0.5138347978     -0.1153648473
H       1.2744625755      0.8762039781     -1.0725343192
H       1.2744625755     -0.8762039781     -1.0725343192
H       2.5489251511     -0.8762039781      1.0725343192
H       2.5489251511      0.8762039781      1.0725343192
H       4.1258219744     -1.0276695956     -0.6254949624
H       4.6189805093      0.5138347978      0.1153648473
H       3.6326634394      0.5138347978     -1.3663547722
