14
step 95  E = -10.83990490 Ha  |g|max = 0.001039
C      -0.0322010019      0.1285510900      0.5844099107
C       1.1546065420     -0.0728962835     -0.4464344401
C       2.5837433279     -0.3241072108      0.1529557529
C       2.9514660817      1.9398925093      0.8823745190
H      -0.1989668292      1.1831369587      0.7622397624
H       0.1839334895     -0.3529541973      1.5271034893
H      -0.9401236600     -0.2979179800      0.1783469434
H       1.1735969216      0.7549984084     -1.1431552541
H       0.9519115897     -0.9676048729     -1.0255868308
H       2.3452348799     -0.8154301206      1.1003855721
H       2.5953960440      0.9104714798      1.1359767762
H       3.5433932631      1.9201830426     -0.0202925550
H       3.5496321901      2.2759032761      1.7176687776
H       2.0780541784      2.5606123962      0.7498749372
14
step 96  E = -10.83991355 Ha  |g|max = 0.002007
C      -0.0321764022      0.1301748086      0.5834783607
C       1.1544872713     -0.0745499623     -0.4460640026
C       2.5833053712     -0.3250203748      0.1528865235
C       2.9520726828      1.9403188068      0.8825325356
H      -0.1980159661      1.1823035805      0.7623449416
H       0.1845412982     -0.3536383634      1.5277379829
H      -0.9403255889     -0.2976089914      0.1786988851
H       1.1739118489      0.7550043904     -1.1438119631
H       0.9515302321     -0.9677675351     -1.0256799374
H       2.3440696478     -0.8160238833      1.1007524718
H       2.5958079691      0.9107427817      1.1346976627
H       3.5435915603      1.9217646109     -0.0200257584
H       3.5491929198      2.2758475079      1.7180658117
H       2.0776842315      2.5612910677      0.7502538275
14
step 97  E = -10.83992472 Ha  |g|max = 0.001029
C      -0.0318852446      0.1285211299      0.5843989818
C       1.1544566590     -0.0737066244     -0.4467946862
C       2.5831583601     -0.3256014937      0.1532636798
C       2.9515710856      1.9408066344      0.8824467615
H      -0.1976971521      1.1831993853      0.7624941862
H       0.1845326652     -0.3532704773      1.5268944565
H      -0.9403495963     -0.2972640218      0.1788489828
H       1.1741186367      0.7541617506     -1.1435371298
H       0.9511977776     -0.9683072336     -1.0259122764
H       2.3436007446     -0.8162511374      1.1008099925
H       2.5960403578      0.9107465666      1.1339689251
H       3.5438364083      1.9225601165     -0.0200278294
H       3.5491705217      2.2758941629      1.7184964187
H       2.0779258827      2.5613496595      0.7505168687
