18
cyclohexane_restart optimised  E = -15.33318671 Ha  |g|max = 0.000784 Ha/a0
C       1.5083589341     -0.0000000000      0.2378402447
C       0.7541795710      1.3062771942     -0.2378400972
C      -0.7541795710      1.3062771942      0.2378400972
C      -1.5083589341     -0.0000000000     -0.2378402447
C      -0.7541795710     -1.3062771942      0.2378400972
C       0.7541795710     -1.3062771943     -0.2378400972
H       2.5140139637     -0.0000000000     -0.1595275442
H       1.5710929188     -0.0000000000      1.3183576553
H       0.7855466180      1.3606065231     -1.3183575128
H       1.2570065669      2.1772000109      0.1595279494
H      -1.2570065668      2.1772000110     -0.1595279494
H      -0.7855466180      1.3606065231      1.3183575129
H      -1.5710929188      0.0000000000     -1.3183576553
H      -2.5140139636     -0.0000000000      0.1595275442
H      -1.2570065668     -2.1772000110     -0.1595279494
H      -0.7855466180     -1.3606065231      1.3183575128
H       0.7855466181     -1.3606065232     -1.3183575128
H       1.2570065669     -2.1772000110      0.1595279495
