18
step 0  E = -15.33309851 Ha
C       1.5063936538     -0.0000000000      0.2394938894
C       0.7531969317      1.3045752239     -0.2394938054
C      -0.7531969317      1.3045752240      0.2394938054
C      -1.5063936538      0.0000000000     -0.2394938894
C      -0.7531969317     -1.3045752240      0.2394938054
C       0.7531969317     -1.3045752240     -0.2394938054
H       2.5112604854      0.0000000000     -0.1611907908
H       1.5660237552      0.0000000000      1.3185157230
H       0.7830119862      1.3562164575     -1.3185156480
H       1.2556299010      2.1748154252      0.1611910729
H      -1.2556299009      2.1748154253     -0.1611910729
H      -0.7830119862      1.3562164575      1.3185156480
H      -1.5660237551      0.0000000000     -1.3185157230
H      -2.5112604854     -0.0000000000      0.1611907908
H      -1.2556299009     -2.1748154253     -0.1611910729
H      -0.7830119862     -1.3562164575      1.3185156480
H       0.7830119863     -1.3562164576     -1.3185156480
H       1.2556299010     -2.1748154253      0.1611910730
18
step 1  E = -15.33312374 Ha  |g|max = 0.001605
C       1.5072120872     -0.0000000001      0.2378402246
C       0.7536061439      1.3052840023     -0.2378401267
C      -0.7536061439      1.3052840022      0.2378401266
C      -1.5072120872      0.0000000000     -0.2378402246
C      -0.7536061439     -1.3052840023      0.2378401266
C       0.7536061439     -1.3052840023     -0.2378401266
H       2.5118777364      0.0000000000     -0.1603691502
H       1.5674608747      0.0000000000      1.3190865561
H       0.7837305580      1.3574610502     -1.3190864648
H       1.2559385072      2.1753499832      0.1603694625
H      -1.2559385071      2.1753499833     -0.1603694625
H      -0.7837305580      1.3574610502      1.3190864648
H      -1.5674608746     -0.0000000000     -1.3190865561
H      -2.5118777364     -0.0000000000      0.1603691502
H      -1.2559385071     -2.1753499833     -0.1603694625
H      -0.7837305580     -1.3574610502      1.3190864648
H       0.7837305581     -1.3574610503     -1.3190864648
H       1.2559385071     -2.1753499832      0.1603694626
18
step 2  E = -15.33314263 Ha  |g|max = 0.001840
C       1.5072357416     -0.0000000000      0.2394939034
C       0.7536179758      1.3053044875     -0.2394937925
C      -0.7536179758      1.3053044875      0.2394937925
C      -1.5072357416     -0.0000000000     -0.2394939034
C      -0.7536179758     -1.3053044876      0.2394937925
C       0.7536179758     -1.3053044876     -0.2394937925
H       2.5129633898      0.0000000000     -0.1602922692
H       1.5685450575     -0.0000000000      1.3180508923
H       0.7842726588      1.3583999882     -1.3180507886
H       1.2564813172      2.1762901859      0.1602926049
H      -1.2564813171      2.1762901860     -0.1602926049
H      -0.7842726588      1.3583999882      1.3180507886
H      -1.5685450575      0.0000000000     -1.3180508924
H      -2.5129633898     -0.0000000000      0.1602922692
H      -1.2564813171     -2.1762901860     -0.1602926049
H      -0.7842726588     -1.3583999882      1.3180507886
H       0.7842726589     -1.3583999883     -1.3180507885
H       1.2564813172     -2.1762901860      0.1602926050
18
step 3  E = -15.33316081 Ha  |g|max = 0.001196
C       1.5078388119     -0.0000000000      0.2378402354
C       0.7539195081      1.3058267584     -0.2378401138
C      -0.7539195080      1.3058267584      0.2378401138
C      -1.5078388119     -0.0000000000     -0.2378402354
C      -0.7539195080     -1.3058267584      0.2378401138
C       0.7539195081     -1.3058267585     -0.2378401137
H       2.5130547432      0.0000000000     -0.1598204447
H       1.5693570801     -0.0000000000      1.3187217742
H       0.7846786788      1.3591032274     -1.3187216587
H       1.2565269826      2.1763693015      0.1598208015
H      -1.2565269825      2.1763693016     -0.1598208016
H      -0.7846786788      1.3591032274      1.3187216587
H      -1.5693570801      0.0000000000     -1.3187217742
H      -2.5130547432     -0.0000000000      0.1598204447
H      -1.2565269825     -2.1763693016     -0.1598208016
H      -0.7846786788     -1.3591032274      1.3187216587
H       0.7846786789     -1.3591032275     -1.3187216587
H       1.2565269825     -2.1763693015      0.1598208016
18
step 4  E = -15.33316396 Ha  |g|max = 0.002305
C       1.5078533157     -0.0000000000      0.2394939141
C       0.7539267634      1.3058393175     -0.2394937760
C      -0.7539267634      1.3058393175      0.2394937760
C      -1.5078533157     -0.0000000000     -0.2394939142
C      -0.7539267634     -1.3058393176      0.2394937760
C       0.7539267634     -1.3058393176     -0.2394937760
H       2.5141510920     -0.0000000000     -0.1598457804
H       1.5705727503     -0.0000000000      1.3176411186
H       0.7852865267      1.3601560387     -1.3176409854
H       1.2570751387      2.1773187674      0.1598461692
H      -1.2570751386      2.1773187675     -0.1598461691
H      -0.7852865267      1.3601560387      1.3176409854
H      -1.5705727502      0.0000000000     -1.3176411186
H      -2.5141510920     -0.0000000000      0.1598457804
H      -1.2570751386     -2.1773187675     -0.1598461691
H      -0.7852865267     -1.3601560387      1.3176409854
H       0.7852865268     -1.3601560388     -1.3176409854
H       1.2570751387     -2.1773187675      0.1598461692
18
step 5  E = -15.33318671 Ha  |g|max = 0.000784
C       1.5083589341     -0.0000000000      0.2378402447
C       0.7541795710      1.3062771942     -0.2378400972
C      -0.7541795710      1.3062771942      0.2378400972
C      -1.5083589341     -0.0000000000     -0.2378402447
C      -0.7541795710     -1.3062771942      0.2378400972
C       0.7541795710     -1.3062771943     -0.2378400972
H       2.5140139637     -0.0000000000     -0.1595275442
H       1.5710929188     -0.0000000000      1.3183576553
H       0.7855466180      1.3606065231     -1.3183575128
H       1.2570065669      2.1772000109      0.1595279494
H      -1.2570065668      2.1772000110     -0.1595279494
H      -0.7855466180      1.3606065231      1.3183575129
H      -1.5710929188      0.0000000000     -1.3183576553
H      -2.5140139636     -0.0000000000      0.1595275442
H      -1.2570065668     -2.1772000110     -0.1595279494
H      -0.7855466180     -1.3606065231      1.3183575128
H       0.7855466181     -1.3606065232     -1.3183575128
H       1.2570065669     -2.1772000110      0.1595279495
