18
step 9  E = -15.33309851 Ha
C       1.5063936538     -0.0000000000      0.2394938894
C       0.7531969317      1.3045752239     -0.2394938054
C      -0.7531969317      1.3045752240      0.2394938054
C      -1.5063936538      0.0000000000     -0.2394938894
C      -0.7531969317     -1.3045752240      0.2394938054
C       0.7531969317     -1.3045752240     -0.2394938054
H       2.5112604854      0.0000000000     -0.1611907908
H       1.5660237552      0.0000000000      1.3185157230
H       0.7830119862      1.3562164575     -1.3185156480
H       1.2556299010      2.1748154252      0.1611910729
H      -1.2556299009      2.1748154253     -0.1611910729
H      -0.7830119862      1.3562164575      1.3185156480
H      -1.5660237551      0.0000000000     -1.3185157230
H      -2.5112604854     -0.0000000000      0.1611907908
H      -1.2556299009     -2.1748154253     -0.1611910729
H      -0.7830119862     -1.3562164575      1.3185156480
H       0.7830119863     -1.3562164576     -1.3185156480
H       1.2556299010     -2.1748154253      0.1611910730
