18
cyclohexane, ideal chair
C       1.4612838150      0.0000000000      0.2283695536
C       0.7306419075      1.2655089059     -0.2283695536
C      -0.7306419075      1.2655089059      0.2283695536
C      -1.4612838150      0.0000000000     -0.2283695536
C      -0.7306419075     -1.2655089059      0.2283695536
C       0.7306419075     -1.2655089059     -0.2283695536
H       2.4755110454      0.0000000000     -0.1709337459
H       1.5466081151      0.0000000000      1.3150248641
H       0.7733040575      1.3394019173     -1.3150248641
H       1.2377555227      2.1438554527      0.1709337459
H      -1.2377555227      2.1438554527     -0.1709337459
H      -0.7733040575      1.3394019173      1.3150248641
H      -1.5466081151      0.0000000000     -1.3150248641
H      -2.4755110454      0.0000000000      0.1709337459
H      -1.2377555227     -2.1438554527     -0.1709337459
H      -0.7733040575     -1.3394019173      1.3150248641
H       0.7733040575     -1.3394019173     -1.3150248641
H       1.2377555227     -2.1438554527      0.1709337459
