18
step 0  E = -15.32183234 Ha
C       1.4612838150      0.0000000000      0.2283695536
C       0.7306419075      1.2655089059     -0.2283695536
C      -0.7306419075      1.2655089059      0.2283695536
C      -1.4612838150      0.0000000000     -0.2283695536
C      -0.7306419075     -1.2655089059      0.2283695536
C       0.7306419075     -1.2655089059     -0.2283695536
H       2.4755110454      0.0000000000     -0.1709337459
H       1.5466081151      0.0000000000      1.3150248641
H       0.7733040575      1.3394019173     -1.3150248641
H       1.2377555227      2.1438554527      0.1709337459
H      -1.2377555227      2.1438554527     -0.1709337459
H      -0.7733040575      1.3394019173      1.3150248641
H      -1.5466081151      0.0000000000     -1.3150248641
H      -2.4755110454      0.0000000000      0.1709337459
H      -1.2377555227     -2.1438554527     -0.1709337459
H      -0.7733040575     -1.3394019173      1.3150248641
H       0.7733040575     -1.3394019173     -1.3150248641
H       1.2377555227     -2.1438554527      0.1709337459
18
step 1  E = -15.32962663 Ha  |g|max = 0.011412
C       1.4877426755      0.0000000000      0.2422085162
C       0.7438714707      1.2884230280     -0.2422085162
C      -0.7438714707      1.2884230280      0.2422085162
C      -1.4877426755      0.0000000000     -0.2422085162
C      -0.7438714707     -1.2884230280      0.2422085162
C       0.7438714707     -1.2884230280     -0.2422085162
H       2.4731238095      0.0000000000     -0.1698934912
H       1.5463518524      0.0000000000      1.3120931668
H       0.7731759272      1.3391799879     -1.3120931668
H       1.2365618501      2.1417880142      0.1698934912
H      -1.2365618501      2.1417880142     -0.1698934912
H      -0.7731759272      1.3391799879      1.3120931668
H      -1.5463518524      0.0000000000     -1.3120931668
H      -2.4731238095     -0.0000000000      0.1698934912
H      -1.2365618501     -2.1417880142     -0.1698934912
H      -0.7731759272     -1.3391799879      1.3120931668
H       0.7731759272     -1.3391799879     -1.3120931668
H       1.2365618501     -2.1417880142      0.1698934912
18
step 2  E = -15.33068270 Ha  |g|max = 0.014391
C       1.4914168159     -0.0000000000      0.2346711526
C       0.7457084351      1.2916048695     -0.2346711586
C      -0.7457084351      1.2916048695      0.2346711586
C      -1.4914168159      0.0000000000     -0.2346711526
C      -0.7457084351     -1.2916048695      0.2346711586
C       0.7457084351     -1.2916048695     -0.2346711586
H       2.4995826700      0.0000000000     -0.1724478707
H       1.5515116856     -0.0000000000      1.3281989407
H       0.7757558764      1.3436485556     -1.3281989474
H       1.2497912117      2.1647021474      0.1724479830
H      -1.2497912117      2.1647021474     -0.1724479830
H      -0.7757558765      1.3436485556      1.3281989474
H      -1.5515116856      0.0000000000     -1.3281989407
H      -2.4995826701     -0.0000000000      0.1724478707
H      -1.2497912117     -2.1647021474     -0.1724479830
H      -0.7757558764     -1.3436485556      1.3281989474
H       0.7757558765     -1.3436485556     -1.3281989474
H       1.2497912117     -2.1647021473      0.1724479830
18
step 3  E = -15.33187548 Ha  |g|max = 0.010192
C       1.5046462462      0.0000000000      0.2464144099
C       0.7523232881      1.3030619817     -0.2464143901
C      -0.7523232881      1.3030619818      0.2464143901
C      -1.5046462462     -0.0000000000     -0.2464144099
C      -0.7523232881     -1.3030619817      0.2464143900
C       0.7523232882     -1.3030619817     -0.2464143901
H       2.4973160734      0.0000000000     -0.1696209340
H       1.5531204538     -0.0000000000      1.3198051475
H       0.7765602632      1.3450417967     -1.3198051507
H       1.2486578437      2.1627391608      0.1696210370
H      -1.2486578437      2.1627391608     -0.1696210370
H      -0.7765602632      1.3450417967      1.3198051507
H      -1.5531204537      0.0000000000     -1.3198051475
H      -2.4973160734     -0.0000000000      0.1696209340
H      -1.2486578437     -2.1627391608     -0.1696210370
H      -0.7765602632     -1.3450417967      1.3198051507
H       0.7765602632     -1.3450417967     -1.3198051507
H       1.2486578437     -2.1627391608      0.1696210370
18
step 4  E = -15.33252141 Ha  |g|max = 0.002408
C       1.5010944083      0.0000000000      0.2397996948
C       0.7505473008      1.2999859513     -0.2397996830
C      -0.7505473008      1.2999859513      0.2397996830
C      -1.5010944083      0.0000000000     -0.2397996948
C      -0.7505473008     -1.2999859513      0.2397996830
C       0.7505473008     -1.2999859513     -0.2397996830
H       2.5007247021      0.0000000000     -0.1684538297
H       1.5548826417     -0.0000000000      1.3225314833
H       0.7774413676      1.3465679056     -1.3225314754
H       1.2503621598      2.1656911560      0.1684539661
H      -1.2503621598      2.1656911560     -0.1684539661
H      -0.7774413676      1.3465679056      1.3225314754
H      -1.5548826417      0.0000000000     -1.3225314833
H      -2.5007247021     -0.0000000000      0.1684538297
H      -1.2503621598     -2.1656911560     -0.1684539661
H      -0.7774413676     -1.3465679056      1.3225314754
H       0.7774413676     -1.3465679056     -1.3225314754
H       1.2503621598     -2.1656911560      0.1684539661
18
step 5  E = -15.33256456 Ha  |g|max = 0.010142
C       1.5051845154      0.0000000000      0.2444549228
C       0.7525924115      1.3035281288     -0.2444548594
C      -0.7525924115      1.3035281288      0.2444548594
C      -1.5051845153     -0.0000000000     -0.2444549227
C      -0.7525924115     -1.3035281288      0.2444548594
C       0.7525924115     -1.3035281288     -0.2444548594
H       2.5073394173      0.0000000000     -0.1641374032
H       1.5608969254      0.0000000000      1.3166437143
H       0.7804485357      1.3517764586     -1.3166436914
H       1.2536694183      2.1714196467      0.1641375895
H      -1.2536694183      2.1714196467     -0.1641375895
H      -0.7804485357      1.3517764586      1.3166436914
H      -1.5608969254      0.0000000000     -1.3166437144
H      -2.5073394172      0.0000000000      0.1641374032
H      -1.2536694183     -2.1714196468     -0.1641375895
H      -0.7804485357     -1.3517764586      1.3166436914
H       0.7804485357     -1.3517764586     -1.3166436914
H       1.2536694183     -2.1714196467      0.1641375895
18
step 6  E = -15.33295111 Ha  |g|max = 0.002649
C       1.5049627570     -0.0000000000      0.2378402076
C       0.7524814735      1.3033360337     -0.2378401610
C      -0.7524814734      1.3033360337      0.2378401610
C      -1.5049627570      0.0000000000     -0.2378402077
C      -0.7524814734     -1.3033360338      0.2378401610
C       0.7524814735     -1.3033360338     -0.2378401610
H       2.5078230562      0.0000000000     -0.1629086789
H       1.5619976086      0.0000000000      1.3200103602
H       0.7809988866      1.3527296859     -1.3200103162
H       1.2539112447      2.1718385241      0.1629088971
H      -1.2539112447      2.1718385242     -0.1629088971
H      -0.7809988867      1.3527296859      1.3200103162
H      -1.5619976086      0.0000000000     -1.3200103602
H      -2.5078230561      0.0000000000      0.1629086789
H      -1.2539112447     -2.1718385242     -0.1629088971
H      -0.7809988866     -1.3527296859      1.3200103162
H       0.7809988867     -1.3527296860     -1.3200103162
H       1.2539112448     -2.1718385241      0.1629088971
18
step 7  E = -15.33298626 Ha  |g|max = 0.004153
C       1.5054858107     -0.0000000000      0.2411475652
C       0.7527430195      1.3037890196     -0.2411474954
C      -0.7527430195      1.3037890197      0.2411474955
C      -1.5054858107      0.0000000000     -0.2411475652
C      -0.7527430195     -1.3037890197      0.2411474954
C       0.7527430196     -1.3037890197     -0.2411474955
H       2.5100112508      0.0000000000     -0.1623438079
H       1.5639617859      0.0000000000      1.3180198729
H       0.7819809861      1.3544307255     -1.3180198202
H       1.2550053094      2.1737335497      0.1623440506
H      -1.2550053094      2.1737335497     -0.1623440505
H      -0.7819809861      1.3544307255      1.3180198202
H      -1.5639617858      0.0000000000     -1.3180198729
H      -2.5100112508      0.0000000000      0.1623438079
H      -1.2550053094     -2.1737335498     -0.1623440505
H      -0.7819809861     -1.3544307255      1.3180198202
H       0.7819809862     -1.3544307256     -1.3180198202
H       1.2550053095     -2.1737335497      0.1623440506
18
step 8  E = -15.33305954 Ha  |g|max = 0.002094
C       1.5062873994     -0.0000000000      0.2378402106
C       0.7531437979      1.3044832031     -0.2378401379
C      -0.7531437979      1.3044832031      0.2378401379
C      -1.5062873994      0.0000000000     -0.2378402106
C      -0.7531437979     -1.3044832031      0.2378401379
C       0.7531437979     -1.3044832031     -0.2378401379
H       2.5101763977      0.0000000000     -0.1613724542
H       1.5650092436      0.0000000000      1.3195300655
H       0.7825047234      1.3553378580     -1.3195299989
H       1.2550878732      2.1738765796      0.1613727193
H      -1.2550878732      2.1738765796     -0.1613727192
H      -0.7825047234      1.3553378580      1.3195299989
H      -1.5650092436      0.0000000000     -1.3195300656
H      -2.5101763976      0.0000000000      0.1613724542
H      -1.2550878732     -2.1738765796     -0.1613727192
H      -0.7825047234     -1.3553378580      1.3195299989
H       0.7825047234     -1.3553378580     -1.3195299989
H       1.2550878732     -2.1738765796      0.1613727193
