4
step 0  E = -4.14602780 Ha
C       0.0000000000      0.0000000000      0.6015000000
C       0.0000000000      0.0000000000     -0.6015000000
H       0.0000000000      0.0000000000      1.6625000000
H       0.0000000000      0.0000000000     -1.6625000000
4
step 1  E = -4.14610376 Ha  |g|max = 0.012112
C       0.0000000000      0.0000000000      0.5948852849
C       0.0000000000      0.0000000000     -0.5948852849
H       0.0000000000      0.0000000000      1.6619304892
H       0.0000000000     -0.0000000000     -1.6619304892
4
step 2  E = -4.14618139 Ha  |g|max = 0.004488
C       0.0000000000      0.0000000000      0.5981926424
C       0.0000000000      0.0000000000     -0.5981926424
H       0.0000000000     -0.0000000000      1.6601396218
H       0.0000000000      0.0000000000     -1.6601396218
4
step 3  E = -4.14619692 Ha  |g|max = 0.003019
C       0.0000000000      0.0000000000      0.5965389636
C       0.0000000000      0.0000000000     -0.5965389636
H       0.0000000000     -0.0000000000      1.6592797797
H       0.0000000000      0.0000000000     -1.6592797797
4
step 4  E = -4.14620196 Ha  |g|max = 0.004885
C       0.0000000000      0.0000000000      0.5978068459
C       0.0000000000     -0.0000000000     -0.5978068459
H       0.0000000000     -0.0000000000      1.6576261010
H       0.0000000000      0.0000000000     -1.6576261010
4
step 5  E = -4.14621022 Ha  |g|max = 0.002522
C       0.0000000000     -0.0000000000      0.5961531671
C       0.0000000000     -0.0000000000     -0.5961531671
H       0.0000000000     -0.0000000000      1.6574385801
H       0.0000000000     -0.0000000000     -1.6574385801
4
step 6  E = -4.14621409 Ha  |g|max = 0.001781
C       0.0000000000     -0.0000000000      0.5969800065
C       0.0000000000     -0.0000000000     -0.5969800065
H       0.0000000000     -0.0000000000      1.6568441436
H       0.0000000000     -0.0000000000     -1.6568441436
4
step 7  E = -4.14621500 Ha  |g|max = 0.001774
C       0.0000000000      0.0000000000      0.5961531671
C       0.0000000000     -0.0000000000     -0.5961531671
H       0.0000000000     -0.0000000000      1.6565633659
H       0.0000000000     -0.0000000000     -1.6565633659
4
step 8  E = -4.14621687 Ha  |g|max = 0.000511
C       0.0000000000      0.0000000000      0.5965665868
C       0.0000000000     -0.0000000000     -0.5965665868
H       0.0000000000     -0.0000000000      1.6563119557
H       0.0000000000     -0.0000000000     -1.6563119557
