24
anthracene optimised (CG)  E = -28.23670038 Ha  |g|max = 0.000081
C      -3.7900194312      0.7402727577     -0.0000000000
C      -3.7900194312     -0.7402727577     -0.0000000000
C      -1.2671593780      0.7450848400     -0.0000000000
C      -1.2671593780     -0.7450848400     -0.0000000000
C      -2.5737510105      1.4579595929      0.0000000000
C      -2.5737510105     -1.4579595929     -0.0000000000
C       1.2671593780      0.7450848400      0.0000000000
C       1.2671593780     -0.7450848400     -0.0000000000
C       0.0000000000      1.4587539205      0.0000000000
C       0.0000000000     -1.4587539205     -0.0000000000
C       3.7900194312      0.7402727577      0.0000000000
C       3.7900194312     -0.7402727577     -0.0000000000
C       2.5737510105      1.4579595929     -0.0000000000
C       2.5737510105     -1.4579595929     -0.0000000000
H      -4.7277731394      1.2623682411     -0.0000000000
H      -4.7277731394     -1.2623682411     -0.0000000000
H      -2.5826208008      2.5316402624      0.0000000000
H      -2.5826208008     -2.5316402624      0.0000000000
H      -0.0000000000      2.5325868131      0.0000000000
H      -0.0000000000     -2.5325868131     -0.0000000000
H       4.7277731394      1.2623682411      0.0000000000
H       4.7277731394     -1.2623682411      0.0000000000
H       2.5826208008      2.5316402624      0.0000000000
H       2.5826208008     -2.5316402624     -0.0000000000
