24
anthracene: linear acene, 3 rings, ideal a=1.40 A planar
C    -3.6373066959     0.7000000000     0.0000000000
C    -3.6373066959    -0.7000000000     0.0000000000
C    -1.2124355653     0.7000000000     0.0000000000
C    -1.2124355653    -0.7000000000     0.0000000000
C    -2.4248711306     1.4000000000     0.0000000000
C    -2.4248711306    -1.4000000000     0.0000000000
C     1.2124355653     0.7000000000     0.0000000000
C     1.2124355653    -0.7000000000     0.0000000000
C     0.0000000000     1.4000000000     0.0000000000
C     0.0000000000    -1.4000000000     0.0000000000
C     3.6373066959     0.7000000000     0.0000000000
C     3.6373066959    -0.7000000000     0.0000000000
C     2.4248711306     1.4000000000     0.0000000000
C     2.4248711306    -1.4000000000     0.0000000000
H    -4.5812743860     1.2450000000     0.0000000000
H    -4.5812743860    -1.2450000000     0.0000000000
H    -2.4248711306     2.4900000000     0.0000000000
H    -2.4248711306    -2.4900000000     0.0000000000
H     0.0000000000     2.4900000000     0.0000000000
H     0.0000000000    -2.4900000000     0.0000000000
H     4.5812743860     1.2450000000     0.0000000000
H     4.5812743860    -1.2450000000     0.0000000000
H     2.4248711306     2.4900000000     0.0000000000
H     2.4248711306    -2.4900000000     0.0000000000
