24
step 0  E = -28.16904955 Ha
C      -3.6373066959      0.7000000000      0.0000000000
C      -3.6373066959     -0.7000000000      0.0000000000
C      -1.2124355653      0.7000000000      0.0000000000
C      -1.2124355653     -0.7000000000      0.0000000000
C      -2.4248711306      1.4000000000      0.0000000000
C      -2.4248711306     -1.4000000000      0.0000000000
C       1.2124355653      0.7000000000      0.0000000000
C       1.2124355653     -0.7000000000      0.0000000000
C       0.0000000000      1.4000000000      0.0000000000
C       0.0000000000     -1.4000000000      0.0000000000
C       3.6373066959      0.7000000000      0.0000000000
C       3.6373066959     -0.7000000000      0.0000000000
C       2.4248711306      1.4000000000      0.0000000000
C       2.4248711306     -1.4000000000      0.0000000000
H      -4.5812743860      1.2450000000      0.0000000000
H      -4.5812743860     -1.2450000000      0.0000000000
H      -2.4248711306      2.4900000000      0.0000000000
H      -2.4248711306     -2.4900000000      0.0000000000
H       0.0000000000      2.4900000000      0.0000000000
H       0.0000000000     -2.4900000000      0.0000000000
H       4.5812743860      1.2450000000      0.0000000000
H       4.5812743860     -1.2450000000      0.0000000000
H       2.4248711306      2.4900000000      0.0000000000
H       2.4248711306     -2.4900000000      0.0000000000
24
step 1  E = -28.20370111 Ha  |g|max = 0.025598
C      -3.6593545379      0.7372101861      0.0000000000
C      -3.6593545379     -0.7372101861     -0.0000000000
C      -1.2032932923      0.7238384317     -0.0000000000
C      -1.2032932923     -0.7238384317     -0.0000000000
C      -2.4564754946      1.4379498863     -0.0000000000
C      -2.4564754946     -1.4379498863      0.0000000000
C       1.2032932923      0.7238384317      0.0000000000
C       1.2032932923     -0.7238384317      0.0000000000
C       0.0000000000      1.4394522002      0.0000000000
C       0.0000000000     -1.4394522002      0.0000000000
C       3.6593545379      0.7372101861      0.0000000000
C       3.6593545379     -0.7372101861     -0.0000000000
C       2.4564754946      1.4379498863     -0.0000000000
C       2.4564754946     -1.4379498863     -0.0000000000
H      -4.5752305099      1.2413508948      0.0000000000
H      -4.5752305099     -1.2413508948      0.0000000000
H      -2.4249736676      2.4827550668      0.0000000000
H      -2.4249736676     -2.4827550668     -0.0000000000
H       0.0000000000      2.4826565052     -0.0000000000
H       0.0000000000     -2.4826565052      0.0000000000
H       4.5752305099      1.2413508948      0.0000000000
H       4.5752305099     -1.2413508948      0.0000000000
H       2.4249736676      2.4827550668     -0.0000000000
H       2.4249736676     -2.4827550668      0.0000000000
24
step 2  E = -28.21786800 Ha  |g|max = 0.037264
C      -3.6695063365      0.7326075442     -0.0000000000
C      -3.6695063365     -0.7326075442     -0.0000000000
C      -1.2239708315      0.7383317771     -0.0000000000
C      -1.2239708315     -0.7383317771      0.0000000000
C      -2.5016337030      1.4564826989     -0.0000000000
C      -2.5016337030     -1.4564826989      0.0000000000
C       1.2239708315      0.7383317771      0.0000000000
C       1.2239708315     -0.7383317771      0.0000000000
C      -0.0000000000      1.4786216776      0.0000000000
C       0.0000000000     -1.4786216776      0.0000000000
C       3.6695063365      0.7326075442      0.0000000000
C       3.6695063365     -0.7326075442     -0.0000000000
C       2.5016337030      1.4564826989      0.0000000000
C       2.5016337030     -1.4564826989     -0.0000000000
H      -4.6069929013      1.2588591916      0.0000000000
H      -4.6069929013     -1.2588591916      0.0000000000
H      -2.4294580981      2.5194580136      0.0000000000
H      -2.4294580981     -2.5194580136     -0.0000000000
H       0.0000000000      2.5220287673     -0.0000000000
H      -0.0000000000     -2.5220287673      0.0000000000
H       4.6069929013      1.2588591916      0.0000000000
H       4.6069929013     -1.2588591916      0.0000000000
H       2.4294580981      2.5194580136     -0.0000000000
H       2.4294580981     -2.5194580136      0.0000000000
24
step 3  E = -28.22706351 Ha  |g|max = 0.011607
C      -3.7112849892      0.7376584310     -0.0000000000
C      -3.7112849892     -0.7376584310     -0.0000000000
C      -1.2397276965      0.7462752150     -0.0000000000
C      -1.2397276965     -0.7462752150     -0.0000000000
C      -2.5130402197      1.4797982861     -0.0000000000
C      -2.5130402197     -1.4797982861      0.0000000000
C       1.2397276965      0.7462752150     -0.0000000000
C       1.2397276965     -0.7462752150      0.0000000000
C       0.0000000000      1.4854669631      0.0000000000
C      -0.0000000000     -1.4854669631      0.0000000000
C       3.7112849892      0.7376584310      0.0000000000
C       3.7112849892     -0.7376584310     -0.0000000000
C       2.5130402197      1.4797982861      0.0000000000
C       2.5130402197     -1.4797982861     -0.0000000000
H      -4.6299639997      1.2678013360      0.0000000000
H      -4.6299639997     -1.2678013360      0.0000000000
H      -2.4406086468      2.5504817339      0.0000000000
H      -2.4406086468     -2.5504817339     -0.0000000000
H       0.0000000000      2.5717384253     -0.0000000000
H       0.0000000000     -2.5717384253     -0.0000000000
H       4.6299639997      1.2678013360      0.0000000000
H       4.6299639997     -1.2678013360      0.0000000000
H       2.4406086468      2.5504817339     -0.0000000000
H       2.4406086468     -2.5504817339      0.0000000000
24
step 4  E = -28.22950574 Ha  |g|max = 0.010564
C      -3.7239737267      0.7507487913      0.0000000000
C      -3.7239737267     -0.7507487913     -0.0000000000
C      -1.2398725688      0.7448113669     -0.0000000000
C      -1.2398725688     -0.7448113669      0.0000000000
C      -2.5142933785      1.4760942387      0.0000000000
C      -2.5142933785     -1.4760942387     -0.0000000000
C       1.2398725688      0.7448113669     -0.0000000000
C       1.2398725688     -0.7448113669      0.0000000000
C      -0.0000000000      1.4919464244      0.0000000000
C       0.0000000000     -1.4919464244     -0.0000000000
C       3.7239737267      0.7507487913      0.0000000000
C       3.7239737267     -0.7507487913     -0.0000000000
C       2.5142933785      1.4760942387     -0.0000000000
C       2.5142933785     -1.4760942387     -0.0000000000
H      -4.6583911395      1.2731369333     -0.0000000000
H      -4.6583911395     -1.2731369333      0.0000000000
H      -2.4602592436      2.5592764002      0.0000000000
H      -2.4602592436     -2.5592764002      0.0000000000
H       0.0000000000      2.5667494493      0.0000000000
H      -0.0000000000     -2.5667494493      0.0000000000
H       4.6583911395      1.2731369333      0.0000000000
H       4.6583911395     -1.2731369333      0.0000000000
H       2.4602592436      2.5592764002     -0.0000000000
H       2.4602592436     -2.5592764002      0.0000000000
24
step 5  E = -28.23128456 Ha  |g|max = 0.011455
C      -3.7369066017      0.7478086221      0.0000000000
C      -3.7369066017     -0.7478086221     -0.0000000000
C      -1.2344165283      0.7453633476     -0.0000000000
C      -1.2344165283     -0.7453633476      0.0000000000
C      -2.5242247977      1.4794276894      0.0000000000
C      -2.5242247977     -1.4794276894     -0.0000000000
C       1.2344165283      0.7453633476     -0.0000000000
C       1.2344165283     -0.7453633476      0.0000000000
C       0.0000000000      1.4833978125      0.0000000000
C      -0.0000000000     -1.4833978125     -0.0000000000
C       3.7369066017      0.7478086221      0.0000000000
C       3.7369066017     -0.7478086221     -0.0000000000
C       2.5242247977      1.4794276894     -0.0000000000
C       2.5242247977     -1.4794276894     -0.0000000000
H      -4.6829120882      1.2762168253     -0.0000000000
H      -4.6829120882     -1.2762168253      0.0000000000
H      -2.4824155025      2.5553194708      0.0000000000
H      -2.4824155025     -2.5553194708      0.0000000000
H       0.0000000000      2.5605727850      0.0000000000
H      -0.0000000000     -2.5605727850      0.0000000000
H       4.6829120882      1.2762168253      0.0000000000
H       4.6829120882     -1.2762168253      0.0000000000
H       2.4824155025      2.5553194708      0.0000000000
H       2.4824155025     -2.5553194708      0.0000000000
24
step 6  E = -28.23622677 Ha  |g|max = 0.006820
C      -3.7949332717      0.7412568977      0.0000000000
C      -3.7949332717     -0.7412568977      0.0000000000
C      -1.2644117470      0.7489525025      0.0000000000
C      -1.2644117470     -0.7489525025      0.0000000000
C      -2.5685421262      1.4584467627      0.0000000000
C      -2.5685421262     -1.4584467627     -0.0000000000
C       1.2644117470      0.7489525025     -0.0000000000
C       1.2644117470     -0.7489525025      0.0000000000
C      -0.0000000000      1.4617685177      0.0000000000
C      -0.0000000000     -1.4617685177     -0.0000000000
C       3.7949332717      0.7412568977      0.0000000000
C       3.7949332717     -0.7412568977     -0.0000000000
C       2.5685421262      1.4584467627      0.0000000000
C       2.5685421262     -1.4584467627      0.0000000000
H      -4.7298912047      1.2647487699      0.0000000000
H      -4.7298912047     -1.2647487699     -0.0000000000
H      -2.5639414308      2.5328640612      0.0000000000
H      -2.5639414308     -2.5328640612      0.0000000000
H      -0.0000000000      2.5295560818      0.0000000000
H       0.0000000000     -2.5295560818      0.0000000000
H       4.7298912047      1.2647487699      0.0000000000
H       4.7298912047     -1.2647487699      0.0000000000
H       2.5639414308      2.5328640612      0.0000000000
H       2.5639414308     -2.5328640612     -0.0000000000
24
step 7  E = -28.23658839 Ha  |g|max = 0.001794
C      -3.7945763469      0.7401741121      0.0000000000
C      -3.7945763469     -0.7401741121      0.0000000000
C      -1.2677629915      0.7445198885      0.0000000000
C      -1.2677629915     -0.7445198885      0.0000000000
C      -2.5753483352      1.4560686560      0.0000000000
C      -2.5753483352     -1.4560686560     -0.0000000000
C       1.2677629915      0.7445198885     -0.0000000000
C       1.2677629915     -0.7445198885     -0.0000000000
C      -0.0000000000      1.4581636528      0.0000000000
C      -0.0000000000     -1.4581636528     -0.0000000000
C       3.7945763469      0.7401741121      0.0000000000
C       3.7945763469     -0.7401741121     -0.0000000000
C       2.5753483352      1.4560686560      0.0000000000
C       2.5753483352     -1.4560686560      0.0000000000
H      -4.7341396986      1.2643554870      0.0000000000
H      -4.7341396986     -1.2643554870     -0.0000000000
H      -2.5711446344      2.5307540515      0.0000000000
H      -2.5711446344     -2.5307540515      0.0000000000
H      -0.0000000000      2.5304829626      0.0000000000
H      -0.0000000000     -2.5304829626      0.0000000000
H       4.7341396986      1.2643554870      0.0000000000
H       4.7341396986     -1.2643554870      0.0000000000
H       2.5711446344      2.5307540515      0.0000000000
H       2.5711446344     -2.5307540515     -0.0000000000
24
step 8  E = -28.23662285 Ha  |g|max = 0.001050
C      -3.7946967965      0.7414340167      0.0000000000
C      -3.7946967965     -0.7414340167      0.0000000000
C      -1.2682560596      0.7440539896      0.0000000000
C      -1.2682560596     -0.7440539896      0.0000000000
C      -2.5756830443      1.4564479247      0.0000000000
C      -2.5756830443     -1.4564479247     -0.0000000000
C       1.2682560596      0.7440539896     -0.0000000000
C       1.2682560596     -0.7440539896     -0.0000000000
C       0.0000000000      1.4568812042      0.0000000000
C      -0.0000000000     -1.4568812042     -0.0000000000
C       3.7946967965      0.7414340167      0.0000000000
C       3.7946967965     -0.7414340167     -0.0000000000
C       2.5756830443      1.4564479247      0.0000000000
C       2.5756830443     -1.4564479247      0.0000000000
H      -4.7331718751      1.2635751375     -0.0000000000
H      -4.7331718751     -1.2635751375     -0.0000000000
H      -2.5731086703      2.5298554722      0.0000000000
H      -2.5731086703     -2.5298554722      0.0000000000
H      -0.0000000000      2.5315437991      0.0000000000
H      -0.0000000000     -2.5315437991     -0.0000000000
H       4.7331718751      1.2635751375      0.0000000000
H       4.7331718752     -1.2635751375      0.0000000000
H       2.5731086703      2.5298554722      0.0000000000
H       2.5731086703     -2.5298554722     -0.0000000000
24
step 9  E = -28.23667520 Ha  |g|max = 0.001242
C      -3.7919885287      0.7403614541      0.0000000000
C      -3.7919885287     -0.7403614541     -0.0000000000
C      -1.2686542597      0.7454593126      0.0000000000
C      -1.2686542597     -0.7454593126     -0.0000000000
C      -2.5747565552      1.4569576656      0.0000000000
C      -2.5747565552     -1.4569576656     -0.0000000000
C       1.2686542597      0.7454593126      0.0000000000
C       1.2686542597     -0.7454593126     -0.0000000000
C      -0.0000000000      1.4582695464     -0.0000000000
C       0.0000000000     -1.4582695464     -0.0000000000
C       3.7919885287      0.7403614541      0.0000000000
C       3.7919885287     -0.7403614541      0.0000000000
C       2.5747565552      1.4569576656     -0.0000000000
C       2.5747565552     -1.4569576656     -0.0000000000
H      -4.7298215501      1.2621666738     -0.0000000000
H      -4.7298215501     -1.2621666738     -0.0000000000
H      -2.5793832857      2.5292461774      0.0000000000
H      -2.5793832857     -2.5292461774     -0.0000000000
H       0.0000000000      2.5310349259      0.0000000000
H      -0.0000000000     -2.5310349259     -0.0000000000
H       4.7298215501      1.2621666738      0.0000000000
H       4.7298215501     -1.2621666738      0.0000000000
H       2.5793832857      2.5292461774      0.0000000000
H       2.5793832857     -2.5292461774      0.0000000000
24
step 10  E = -28.23669403 Ha  |g|max = 0.000757
C      -3.7907417363      0.7396164125      0.0000000000
C      -3.7907417363     -0.7396164125     -0.0000000000
C      -1.2675319032      0.7449033071      0.0000000000
C      -1.2675319032     -0.7449033071     -0.0000000000
C      -2.5744621098      1.4568714034      0.0000000000
C      -2.5744621098     -1.4568714034     -0.0000000000
C       1.2675319032      0.7449033071      0.0000000000
C       1.2675319032     -0.7449033071     -0.0000000000
C      -0.0000000000      1.4578491691     -0.0000000000
C      -0.0000000000     -1.4578491691     -0.0000000000
C       3.7907417363      0.7396164125     -0.0000000000
C       3.7907417363     -0.7396164125      0.0000000000
C       2.5744621098      1.4568714034     -0.0000000000
C       2.5744621098     -1.4568714034     -0.0000000000
H      -4.7285701628      1.2618022245     -0.0000000000
H      -4.7285701628     -1.2618022245     -0.0000000000
H      -2.5820360059      2.5300880280      0.0000000000
H      -2.5820360059     -2.5300880280     -0.0000000000
H       0.0000000000      2.5316853618      0.0000000000
H      -0.0000000000     -2.5316853618     -0.0000000000
H       4.7285701628      1.2618022245      0.0000000000
H       4.7285701628     -1.2618022245      0.0000000000
H       2.5820360059      2.5300880279      0.0000000000
H       2.5820360059     -2.5300880280      0.0000000000
24
step 11  E = -28.23669718 Ha  |g|max = 0.000296
C      -3.7906857308      0.7401052291      0.0000000000
C      -3.7906857308     -0.7401052291     -0.0000000000
C      -1.2672675651      0.7447204671      0.0000000000
C      -1.2672675651     -0.7447204671     -0.0000000000
C      -2.5740870174      1.4570376246      0.0000000000
C      -2.5740870174     -1.4570376246     -0.0000000000
C       1.2672675651      0.7447204671      0.0000000000
C       1.2672675651     -0.7447204671     -0.0000000000
C      -0.0000000000      1.4581044034     -0.0000000000
C       0.0000000000     -1.4581044034     -0.0000000000
C       3.7906857308      0.7401052291     -0.0000000000
C       3.7906857308     -0.7401052291      0.0000000000
C       2.5740870174      1.4570376246     -0.0000000000
C       2.5740870174     -1.4570376246     -0.0000000000
H      -4.7282749259      1.2617708524     -0.0000000000
H      -4.7282749259     -1.2617708524     -0.0000000000
H      -2.5825371596      2.5304691888      0.0000000000
H      -2.5825371596     -2.5304691888     -0.0000000000
H       0.0000000000      2.5317898012      0.0000000000
H      -0.0000000000     -2.5317898012     -0.0000000000
H       4.7282749259      1.2617708524      0.0000000000
H       4.7282749259     -1.2617708524      0.0000000000
H       2.5825371596      2.5304691888      0.0000000000
H       2.5825371596     -2.5304691888     -0.0000000000
24
step 12  E = -28.23669914 Ha  |g|max = 0.000210
C      -3.7901927892      0.7403054118      0.0000000000
C      -3.7901927892     -0.7403054118     -0.0000000000
C      -1.2670438717      0.7449872144      0.0000000000
C      -1.2670438717     -0.7449872144     -0.0000000000
C      -2.5737904350      1.4575535535      0.0000000000
C      -2.5737904350     -1.4575535535     -0.0000000000
C       1.2670438717      0.7449872144     -0.0000000000
C       1.2670438717     -0.7449872144     -0.0000000000
C      -0.0000000000      1.4584771022      0.0000000000
C      -0.0000000000     -1.4584771022     -0.0000000000
C       3.7901927892      0.7403054118     -0.0000000000
C       3.7901927892     -0.7403054118      0.0000000000
C       2.5737904350      1.4575535535     -0.0000000000
C       2.5737904350     -1.4575535535     -0.0000000000
H      -4.7283281110      1.2621126596     -0.0000000000
H      -4.7283281110     -1.2621126596     -0.0000000000
H      -2.5827930052      2.5309286300      0.0000000000
H      -2.5827930052     -2.5309286300     -0.0000000000
H      -0.0000000000      2.5320034883      0.0000000000
H      -0.0000000000     -2.5320034883     -0.0000000000
H       4.7283281110      1.2621126596      0.0000000000
H       4.7283281110     -1.2621126596      0.0000000000
H       2.5827930052      2.5309286300      0.0000000000
H       2.5827930052     -2.5309286300     -0.0000000000
24
step 13  E = -28.23670008 Ha  |g|max = 0.000191
C      -3.7900980353      0.7401541751      0.0000000000
C      -3.7900980353     -0.7401541751     -0.0000000000
C      -1.2670912476      0.7450398861     -0.0000000000
C      -1.2670912476     -0.7450398861     -0.0000000000
C      -2.5737036327      1.4579056678      0.0000000000
C      -2.5737036327     -1.4579056678     -0.0000000000
C       1.2670912476      0.7450398861      0.0000000000
C       1.2670912476     -0.7450398861     -0.0000000000
C       0.0000000000      1.4586061981      0.0000000000
C      -0.0000000000     -1.4586061981     -0.0000000000
C       3.7900980353      0.7401541751     -0.0000000000
C       3.7900980353     -0.7401541751      0.0000000000
C       2.5737036327      1.4579056678     -0.0000000000
C       2.5737036327     -1.4579056678     -0.0000000000
H      -4.7279946911      1.2623180487     -0.0000000000
H      -4.7279946911     -1.2623180487     -0.0000000000
H      -2.5827243919      2.5314590712      0.0000000000
H      -2.5827243919     -2.5314590712      0.0000000000
H      -0.0000000000      2.5324922093      0.0000000000
H      -0.0000000000     -2.5324922093     -0.0000000000
H       4.7279946911      1.2623180487      0.0000000000
H       4.7279946911     -1.2623180487      0.0000000000
H       2.5827243919      2.5314590712      0.0000000000
H       2.5827243919     -2.5314590712     -0.0000000000
24
step 14  E = -28.23670038 Ha  |g|max = 0.000081
C      -3.7900194312      0.7402727577     -0.0000000000
C      -3.7900194312     -0.7402727577     -0.0000000000
C      -1.2671593780      0.7450848400     -0.0000000000
C      -1.2671593780     -0.7450848400     -0.0000000000
C      -2.5737510105      1.4579595929      0.0000000000
C      -2.5737510105     -1.4579595929     -0.0000000000
C       1.2671593780      0.7450848400      0.0000000000
C       1.2671593780     -0.7450848400     -0.0000000000
C       0.0000000000      1.4587539205      0.0000000000
C       0.0000000000     -1.4587539205     -0.0000000000
C       3.7900194312      0.7402727577      0.0000000000
C       3.7900194312     -0.7402727577     -0.0000000000
C       2.5737510105      1.4579595929     -0.0000000000
C       2.5737510105     -1.4579595929     -0.0000000000
H      -4.7277731394      1.2623682411     -0.0000000000
H      -4.7277731394     -1.2623682411     -0.0000000000
H      -2.5826208008      2.5316402624      0.0000000000
H      -2.5826208008     -2.5316402624      0.0000000000
H      -0.0000000000      2.5325868131      0.0000000000
H      -0.0000000000     -2.5325868131     -0.0000000000
H       4.7277731394      1.2623682411      0.0000000000
H       4.7277731394     -1.2623682411      0.0000000000
H       2.5826208008      2.5316402624      0.0000000000
H       2.5826208008     -2.5316402624     -0.0000000000
