12
benzene_id optimised (CG)  E = -12.76278627 Ha  |g|max = 0.000032
C      -1.2510167618      0.7222748642      0.0000000000
C      -1.2510167618     -0.7222748642     -0.0000000000
C       1.2510167618      0.7222748642     -0.0000000000
C       1.2510167618     -0.7222748642      0.0000000000
C      -0.0000000000      1.4445497283     -0.0000000000
C      -0.0000000000     -1.4445497283      0.0000000000
H      -2.1804545271      1.2588860082     -0.0000000000
H      -2.1804545271     -1.2588860082      0.0000000000
H       2.1804545271      1.2588860082      0.0000000000
H       2.1804545271     -1.2588860082     -0.0000000000
H       0.0000000000      2.5177720164     -0.0000000000
H      -0.0000000000     -2.5177720164      0.0000000000
