12
step 0  E = -12.75047728 Ha
C      -1.2124355653      0.7000000000      0.0000000000
C      -1.2124355653     -0.7000000000      0.0000000000
C       1.2124355653      0.7000000000      0.0000000000
C       1.2124355653     -0.7000000000      0.0000000000
C       0.0000000000      1.4000000000      0.0000000000
C       0.0000000000     -1.4000000000      0.0000000000
H      -2.1564032554      1.2450000000      0.0000000000
H      -2.1564032554     -1.2450000000      0.0000000000
H       2.1564032554      1.2450000000      0.0000000000
H       2.1564032554     -1.2450000000      0.0000000000
H       0.0000000000      2.4900000000      0.0000000000
H       0.0000000000     -2.4900000000      0.0000000000
12
step 1  E = -12.75999083 Ha  |g|max = 0.014027
C      -1.2369387217      0.7141469039      0.0000000000
C      -1.2369387217     -0.7141469039      0.0000000000
C       1.2369387217      0.7141469039     -0.0000000000
C       1.2369387217     -0.7141469039      0.0000000000
C      -0.0000000000      1.4282938078     -0.0000000000
C       0.0000000000     -1.4282938078      0.0000000000
H      -2.1516388967      1.2422492962     -0.0000000000
H      -2.1516388967     -1.2422492962     -0.0000000000
H       2.1516388967      1.2422492962      0.0000000000
H       2.1516388967     -1.2422492962     -0.0000000000
H       0.0000000000      2.4844985925     -0.0000000000
H      -0.0000000000     -2.4844985925      0.0000000000
12
step 2  E = -12.76277853 Ha  |g|max = 0.001507
C      -1.2502340282      0.7218229527      0.0000000000
C      -1.2502340282     -0.7218229527     -0.0000000000
C       1.2502340282      0.7218229527     -0.0000000000
C       1.2502340282     -0.7218229527      0.0000000000
C      -0.0000000000      1.4436459055     -0.0000000000
C      -0.0000000000     -1.4436459055      0.0000000000
H      -2.1804922556      1.2589077907     -0.0000000000
H      -2.1804922556     -1.2589077907      0.0000000000
H       2.1804922556      1.2589077907      0.0000000000
H       2.1804922556     -1.2589077907     -0.0000000000
H       0.0000000000      2.5178155814     -0.0000000000
H       0.0000000000     -2.5178155814      0.0000000000
12
step 3  E = -12.76278627 Ha  |g|max = 0.000032
C      -1.2510167618      0.7222748642      0.0000000000
C      -1.2510167618     -0.7222748642     -0.0000000000
C       1.2510167618      0.7222748642     -0.0000000000
C       1.2510167618     -0.7222748642      0.0000000000
C      -0.0000000000      1.4445497283     -0.0000000000
C      -0.0000000000     -1.4445497283      0.0000000000
H      -2.1804545271      1.2588860082     -0.0000000000
H      -2.1804545271     -1.2588860082      0.0000000000
H       2.1804545271      1.2588860082      0.0000000000
H       2.1804545271     -1.2588860082     -0.0000000000
H       0.0000000000      2.5177720164     -0.0000000000
H      -0.0000000000     -2.5177720164      0.0000000000
