12
step 0  E = -12.57624282 Ha
C       1.4914269396     -0.0679572974     -0.0536982606
C       0.4160342403      1.5042913233      0.1487415634
C      -0.7757299688      1.3709242198      0.0365573871
C      -1.5388469687      0.1270837686     -0.0403723511
C      -0.7761721075     -1.3733084418      0.0591445493
C       0.7205292533     -1.1994418307     -0.0789341410
H       2.5751557035     -0.0626482013     -0.1377980814
H       0.8616360753      2.4739176617      0.3557023532
H      -1.3552080639      2.2892116048     -0.0136662728
H      -2.6179411703      0.1699364444     -0.1640184283
H      -1.2839992613     -2.3238192174      0.2013058918
H       1.2743795959     -2.1238354994     -0.2214653422
12
step 1  E = -12.68307041 Ha  |g|max = 0.116747
C       1.4587063246     -0.0050824092     -0.0442638629
C       0.5895253796      1.4722920085      0.1565213032
C      -0.9020753759      1.3685689072      0.0226096181
C      -1.5269610454      0.0514059769     -0.0387476992
C      -0.7947633319     -1.3016620122      0.0537695883
C       0.7134972771     -1.2241438092     -0.0783589071
H       2.5692529077     -0.0608475587     -0.1375738430
H       0.8648922286      2.4688689410      0.3520587688
H      -1.3587601654      2.2871450167     -0.0111303931
H      -2.6131307299      0.1688433032     -0.1615642407
H      -1.2814720088     -2.3179041659      0.1980257383
H       1.2725528024     -2.1231296657     -0.2198472034
12
step 2  E = -12.71953841 Ha  |g|max = 0.047347
C       1.4184396144      0.0813335130     -0.0309866320
C       0.6226644967      1.3723561480      0.1412017964
C      -0.8557712877      1.3267241673      0.0235686750
C      -1.5277335028     -0.0003264573     -0.0374713209
C      -0.8012535920     -1.2465191792      0.0479533297
C       0.6881882862     -1.2207834700     -0.0739191235
H       2.5457135942     -0.0532968483     -0.1345052635
H       0.8874966234      2.4754426067      0.3504072255
H      -1.3849731103      2.3096927019     -0.0103627077
H      -2.6017432281      0.1538994555     -0.1560235697
H      -1.2721796876     -2.2864154061      0.1889116452
H       1.2724160579     -2.1277526975     -0.2172751865
12
step 3  E = -12.73587746 Ha  |g|max = 0.044413
C       1.3946334437      0.1036120561     -0.0244922536
C       0.6132350256      1.3463563261      0.1340743000
C      -0.8029562207      1.2911801066      0.0238531452
C      -1.5397010225      0.0294976565     -0.0375387855
C      -0.7834517585     -1.2662852856      0.0450046721
C       0.6707319960     -1.1731551950     -0.0679717015
H       2.4928815457     -0.0285324921     -0.1252679847
H       0.9141689197      2.4209172875      0.3352259664
H      -1.3848723691      2.2813226585     -0.0068419317
H      -2.5885624553      0.1238788549     -0.1467773971
H      -1.2567442394     -2.2246550443      0.1721672334
H       1.2619014098     -2.1197823952     -0.2099363948
12
step 4  E = -12.75007525 Ha  |g|max = 0.032835
C       1.3788579146      0.1074931136     -0.0200107148
C       0.6301118318      1.3542725972      0.1335538785
C      -0.8115910716      1.2768180398      0.0199723147
C      -1.5095888380      0.0359450424     -0.0325273228
C      -0.7731697023     -1.2347518457      0.0365415438
C       0.6660218507     -1.1512848268     -0.0654368236
H       2.4256119600      0.0102106370     -0.1113144050
H       0.9499888539      2.3341717178      0.3107405996
H      -1.3615015089      2.2160186254     -0.0003870649
H      -2.5925920999      0.0897252346     -0.1361650069
H      -1.2466074898     -2.1714414456      0.1516237042
H       1.2357225901     -2.0828223636     -0.1950918340
12
step 5  E = -12.75382129 Ha  |g|max = 0.019371
C       1.3641551989      0.1118616213     -0.0175886609
C       0.6237214284      1.3361189268      0.1291777805
C      -0.8130541799      1.2841098996      0.0201064453
C      -1.5121543677      0.0258343210     -0.0316457030
C      -0.7675287007     -1.2064542636      0.0319905495
C       0.6670067423     -1.1582256765     -0.0659458759
H       2.4204191337      0.0256120672     -0.1063948644
H       0.9747779776      2.3244190320      0.3042725915
H      -1.3541660124      2.1941985836      0.0021566482
H      -2.5870342194      0.0772891481     -0.1306366821
H      -1.2498588571     -2.1661058628      0.1439312049
H       1.2249801550     -2.0643032759     -0.1879245643
12
step 6  E = -12.75566144 Ha  |g|max = 0.014962
C       1.3590507133      0.0998591789     -0.0174915165
C       0.6054979125      1.3301192154      0.1255708881
C      -0.8111479063      1.2747262022      0.0213170120
C      -1.5241050689      0.0310000427     -0.0320044039
C      -0.7688566414     -1.2045711146      0.0293535273
C       0.6665126600     -1.1549300351     -0.0657035024
H       2.4280074837      0.0429134129     -0.1008784878
H       1.0051389270      2.3229383151      0.2976567919
H      -1.3583054229      2.1942616633      0.0047029037
H      -2.5801092445      0.0642409162     -0.1238081996
H      -1.2524215933     -2.1585695283      0.1340792986
H       1.2220024879     -2.0576337543     -0.1812954414
12
step 7  E = -12.75770649 Ha  |g|max = 0.021950
C       1.3666723640      0.0881816966     -0.0177018224
C       0.6034362263      1.3375260431      0.1230757686
C      -0.8324812229      1.2734868441      0.0229058770
C      -1.5234609343      0.0249322238     -0.0310172437
C      -0.7847728284     -1.2035367018      0.0239896942
C       0.6598906850     -1.1509631269     -0.0644209138
H       2.4381413864      0.0765496356     -0.0889672918
H       1.0545897489      2.3041524224      0.2802743791
H      -1.3670652445      2.1977500780      0.0103348391
H      -2.5883127062      0.0412701278     -0.1113160059
H      -1.2588031787     -2.1473877860      0.1134614422
H       1.2234300251     -2.0576069530     -0.1691198517
12
step 8  E = -12.75950132 Ha  |g|max = 0.021430
C       1.3692948775      0.1033091307     -0.0152622457
C       0.6085608058      1.3310504143      0.1178697751
C      -0.8367946575      1.2891640635      0.0265616929
C      -1.5333953358      0.0136143152     -0.0300684277
C      -0.7873791791     -1.1986063455      0.0164967079
C       0.6538938745     -1.1584783050     -0.0628923174
H       2.4463728855      0.1092536737     -0.0756365419
H       1.1016707088      2.2813996093      0.2595898498
H      -1.3809389488      2.2034530239      0.0167829998
H      -2.6008472253      0.0173084675     -0.0971770839
H      -1.2729201165     -2.1472455484      0.0907202480
H       1.2237466453     -2.0598680028     -0.1554857848
12
step 9  E = -12.76053519 Ha  |g|max = 0.008755
C       1.3660710328      0.1091538033     -0.0133793167
C       0.6105804583      1.3289897362      0.1130507299
C      -0.8321300859      1.2901793296      0.0298014827
C      -1.5415054249      0.0264695015     -0.0285115466
C      -0.7811471590     -1.2058188262      0.0105130054
C       0.6599614315     -1.1560796080     -0.0611890882
H       2.4471493583      0.1297452570     -0.0654427541
H       1.1286922113      2.2637497314      0.2433642574
H      -1.3937858521      2.2116568381      0.0218935613
H      -2.6110321845      0.0007618936     -0.0866025142
H      -1.2846859319     -2.1499554580      0.0734504532
H       1.2230964891     -2.0644977046     -0.1454493973
12
step 10  E = -12.76081629 Ha  |g|max = 0.004994
C       1.3673562956      0.1058590128     -0.0129070459
C       0.6121096462      1.3313197111      0.1106303930
C      -0.8371645445      1.2923149912      0.0311194416
C      -1.5364401977      0.0309549841     -0.0265928644
C      -0.7801229605     -1.2045074566      0.0074345949
C       0.6649237127     -1.1548923857     -0.0602512253
H       2.4416612909      0.1346979336     -0.0610788811
H       1.1332016028      2.2586651061      0.2365147242
H      -1.3948663739      2.2110114860      0.0243654874
H      -2.6143775172     -0.0026726566     -0.0824559926
H      -1.2879229549     -2.1515028737      0.0661607360
H       1.2229063448     -2.0668933591     -0.1414404946
12
step 11  E = -12.76112903 Ha  |g|max = 0.009208
C       1.3654540868      0.1048613246     -0.0110542032
C       0.6076100600      1.3278482299      0.1038632371
C      -0.8381638985      1.3010014631      0.0343542620
C      -1.5335919654      0.0287029470     -0.0224583585
C      -0.7771707797     -1.1991634268      0.0012339046
C       0.6685014481     -1.1598291372     -0.0582579906
H       2.4323882470      0.1385918414     -0.0531977472
H       1.1360504987      2.2581567135      0.2242249251
H      -1.3949475546      2.2090835513      0.0294458543
H      -2.6090904099     -0.0036450618     -0.0744293535
H      -1.2892255971     -2.1497791516      0.0519737565
H       1.2234502083     -2.0714747999     -0.1341994133
12
step 12  E = -12.76173152 Ha  |g|max = 0.008100
C       1.3506018608      0.0990673348     -0.0062709043
C       0.5989696266      1.3282389861      0.0889178217
C      -0.8348143932      1.3019419577      0.0412279578
C      -1.5281822757      0.0315101159     -0.0129534334
C      -0.7722182002     -1.1984010107     -0.0124525949
C       0.6735250416     -1.1674103135     -0.0533026262
H       2.4207746697      0.1453203912     -0.0353423478
H       1.1366110741      2.2559240161      0.1948420482
H      -1.3997842070      2.2149396998      0.0417977294
H      -2.5937028732     -0.0041207773     -0.0555054852
H      -1.2871735801     -2.1381652851      0.0182718740
H       1.2266575986     -2.0844906182     -0.1177311652
12
step 13  E = -12.76197678 Ha  |g|max = 0.004191
C       1.3477498091      0.0980813782     -0.0037312920
C       0.6019273336      1.3320925169      0.0827721172
C      -0.8403870392      1.3017462871      0.0438182305
C      -1.5199596078      0.0321542427     -0.0087278481
C      -0.7710801186     -1.1980676727     -0.0185928086
C       0.6723493281     -1.1726889280     -0.0510439431
H       2.4171167681      0.1472465574     -0.0266092308
H       1.1340030247      2.2538407604      0.1795582427
H      -1.4012162678      2.2175962598      0.0483922239
H      -2.5912247923     -0.0036676801     -0.0460729201
H      -1.2866190065     -2.1340661888      0.0013522873
H       1.2286049088     -2.0899130328     -0.1096161845
12
step 14  E = -12.76214961 Ha  |g|max = 0.005078
C       1.3504870207      0.1015356676     -0.0009853436
C       0.6030664981      1.3294930646      0.0776665516
C      -0.8428313117      1.3060580774      0.0456730330
C      -1.5190612267      0.0319699724     -0.0060414702
C      -0.7676531561     -1.1998752162     -0.0233562587
C       0.6689955132     -1.1776128121     -0.0492668464
H       2.4174415174      0.1465648229     -0.0185546564
H       1.1322528633      2.2576004812      0.1648701325
H      -1.4022439696      2.2187515216      0.0551741663
H      -2.5903683749     -0.0026144895     -0.0368800260
H      -1.2888021070     -2.1349852798     -0.0148118680
H       1.2299810713     -2.0925313054     -0.1019885395
12
step 15  E = -12.76239954 Ha  |g|max = 0.005629
C       1.3521449993      0.1002833790      0.0030926437
C       0.6028663697      1.3280062706      0.0709564694
C      -0.8417031474      1.3056266428      0.0478437169
C      -1.5222845488      0.0363954480     -0.0028075567
C      -0.7672536297     -1.2057927006     -0.0297967568
C       0.6721834115     -1.1768778251     -0.0466054999
H       2.4244576582      0.1437495620     -0.0063151060
H       1.1291531134      2.2653629952      0.1417483072
H      -1.4051756189      2.2225153811      0.0660837295
H      -2.5906357839     -0.0011818899     -0.0225991187
H      -1.2934646654     -2.1393530359     -0.0397689278
H       1.2309761766     -2.0943797178     -0.0903330262
12
step 16  E = -12.76257949 Ha  |g|max = 0.003820
C       1.3564024731      0.0975803953      0.0063288885
C       0.6050520377      1.3325413449      0.0663267920
C      -0.8421955659      1.3051304177      0.0494101939
C      -1.5210717644      0.0337957941     -0.0006897512
C      -0.7717972412     -1.2043304452     -0.0346696010
C       0.6753351295     -1.1752675095     -0.0443422939
H       2.4298932300      0.1404880286      0.0032921122
H       1.1249350681      2.2687999925      0.1230451116
H      -1.4055873981      2.2231944154      0.0748295790
H      -2.5942131210      0.0002640051     -0.0114210014
H      -1.2968989966     -2.1439571511     -0.0593206116
H       1.2314104806     -2.0938847769     -0.0812905435
12
step 17  E = -12.76265098 Ha  |g|max = 0.003973
C       1.3595711009      0.0989770042      0.0079799065
C       0.6043609063      1.3328205963      0.0641850323
C      -0.8396896815      1.3062361208      0.0502376339
C      -1.5228211677      0.0297589863      0.0000378593
C      -0.7734360096     -1.2035978498     -0.0370239484
C       0.6731119925     -1.1742107344     -0.0430304391
H       2.4314470944      0.1381285015      0.0073107476
H       1.1235011559      2.2706839024      0.1150328394
H      -1.4041140573      2.2208036209      0.0785462646
H      -2.5955053339      0.0010327859     -0.0067872037
H      -1.2967451750     -2.1438132636     -0.0673210896
H       1.2315835064     -2.0924651594     -0.0776687281
12
step 18  E = -12.76272398 Ha  |g|max = 0.004018
C       1.3592225697      0.1001028564      0.0100193571
C       0.6045840377      1.3323212487      0.0615632625
C      -0.8370265723      1.3014543691      0.0511571255
C      -1.5256417903      0.0297710243      0.0010222867
C      -0.7749316317     -1.2052342865     -0.0401939357
C       0.6708015404     -1.1700096722     -0.0409775859
H       2.4337483870      0.1345425372      0.0115828696
H       1.1221290463      2.2728091661      0.1062978685
H      -1.4009894170      2.2164363984      0.0825885293
H      -2.5971770560      0.0015727319     -0.0020371384
H      -1.2942463574     -2.1408212611     -0.0754581795
H       1.2307915755     -2.0885906003     -0.0740655854
12
step 19  E = -12.76277204 Ha  |g|max = 0.001515
C       1.3594579521      0.1006496680      0.0115633578
C       0.6070412751      1.3329317443      0.0595884911
C      -0.8377596642      1.2966955574      0.0519166761
C      -1.5261910713      0.0298572124      0.0018191703
C      -0.7749707820     -1.2025116386     -0.0425463121
C       0.6696810622     -1.1681334009     -0.0393709890
H       2.4339629844      0.1315334486      0.0145674476
H       1.1207523392      2.2736070936      0.1001123781
H      -1.3977859128      2.2122739713      0.0854119964
H      -2.5993136433      0.0020163195      0.0011070720
H      -1.2929151334     -2.1406659649     -0.0810088771
H       1.2293049268     -2.0838994979     -0.0716615371
12
step 20  E = -12.76277925 Ha  |g|max = 0.000745
C       1.3602905516      0.1009647929      0.0119018470
C       0.6070406289      1.3325075187      0.0591079368
C      -0.8372904826      1.2967796067      0.0521974767
C      -1.5271205418      0.0295270022      0.0020229379
C      -0.7744447500     -1.2018273122     -0.0430592585
C       0.6693224911     -1.1677931639     -0.0390290714
H       2.4332367529      0.1307337978      0.0151168204
H       1.1206259820      2.2739911210      0.0989876499
H      -1.3971203072      2.2113090660      0.0859263072
H      -2.5995926147      0.0021428059      0.0015532038
H      -1.2926314078     -2.1411221390     -0.0819196979
H       1.2289480307     -2.0828585837     -0.0713072778
12
step 1  E = -12.76278102 Ha  |g|max = 0.000530
C       1.3601268767      0.1007982755      0.0119517980
C       0.6069520595      1.3324128169      0.0589914378
C      -0.8369395211      1.2969225807      0.0523242943
C      -1.5272497696      0.0297186867      0.0021172820
C      -0.7747164893     -1.2023244990     -0.0431774042
C       0.6696575486     -1.1672372963     -0.0389597116
H       2.4331507880      0.1304869362      0.0151575685
H       1.1206119861      2.2740033105      0.0989220860
H      -1.3972077377      2.2115226601      0.0859712969
H      -2.5998183869      0.0021522667      0.0014255991
H      -1.2922485079     -2.1412006986     -0.0818349731
H       1.2289454868     -2.0829005273     -0.0713903996
12
step 2  E = -12.76278294 Ha  |g|max = 0.000462
C       1.3602332854      0.1007967472      0.0121301411
C       0.6069959411      1.3325543249      0.0586541963
C      -0.8365392695      1.2975435246      0.0527353174
C      -1.5273942279      0.0294470986      0.0023829236
C      -0.7748997448     -1.2020963390     -0.0434638258
C       0.6698047378     -1.1668832104     -0.0387996040
H       2.4327569544      0.1296478726      0.0153021240
H       1.1205123601      2.2738819554      0.0986747730
H      -1.3972413172      2.2119999499      0.0861278582
H      -2.6004804170      0.0022997467      0.0010003559
H      -1.2913324525     -2.1422369139     -0.0815909966
H       1.2288484841     -2.0826002452     -0.0716543893
12
step 3  E = -12.76278501 Ha  |g|max = 0.000450
C       1.3599956286      0.1007899238      0.0123489582
C       0.6071077952      1.3329409862      0.0582902419
C      -0.8371005926      1.2973992285      0.0532371601
C      -1.5278677630      0.0299160488      0.0027485642
C      -0.7748263677     -1.2020226304     -0.0437662074
C       0.6693209859     -1.1668933569     -0.0386317316
H       2.4328473248      0.1284302914      0.0155551947
H       1.1206052157      2.2740080557      0.0982339102
H      -1.3970207410      2.2126164428      0.0864170408
H      -2.6007744219      0.0025765151      0.0003583666
H      -1.2897442594     -2.1434144019     -0.0812430239
H       1.2287215303     -2.0819925924     -0.0720496003
12
step 4  E = -12.76278566 Ha  |g|max = 0.000159
C       1.3599171353      0.1009749714      0.0124125078
C       0.6069557615      1.3327190609      0.0582199260
C      -0.8372694435      1.2974918374      0.0533925782
C      -1.5280143252      0.0299272844      0.0028396854
C      -0.7749919526     -1.2021736168     -0.0438021221
C       0.6690333724     -1.1667704567     -0.0385921193
H       2.4328802034      0.1279503203      0.0156746612
H       1.1207437053      2.2742626285      0.0980153268
H      -1.3968555528      2.2127233451      0.0865643201
H      -2.6008403217      0.0027202348      0.0001048749
H      -1.2890157249     -2.1436075723     -0.0811188208
H       1.2287214781     -2.0818635266     -0.0722119449
12
step 5  E = -12.76278590 Ha  |g|max = 0.000129
C       1.3599600592      0.1009525808      0.0123953149
C       0.6068695482      1.3328639773      0.0583438670
C      -0.8372492782      1.2974338799      0.0533945731
C      -1.5279892059      0.0297048500      0.0028014927
C      -0.7751444974     -1.2020916524     -0.0436581188
C       0.6689369736     -1.1665763429     -0.0386153237
H       2.4327853992      0.1277111322      0.0157798389
H       1.1207025189      2.2742506388      0.0977839663
H      -1.3967332748      2.2127142010      0.0867184945
H      -2.6009059023      0.0028545690     -0.0000460149
H      -1.2886603622     -2.1436416557     -0.0810848287
H       1.2286923571     -2.0818216679     -0.0723143879
12
step 6  E = -12.76278607 Ha  |g|max = 0.000097
C       1.3598251965      0.1009654553      0.0123657877
C       0.6068326782      1.3329168742      0.0585239491
C      -0.8371296508      1.2973110269      0.0533611624
C      -1.5281406311      0.0296599869      0.0027343394
C      -0.7751179788     -1.2020349539     -0.0434509188
C       0.6690341921     -1.1664826422     -0.0386557861
H       2.4327543826      0.1275045190      0.0159009908
H       1.1206242341      2.2742666507      0.0975049295
H      -1.3966250754      2.2126480285      0.0869087987
H      -2.6009141164      0.0029922293     -0.0002047696
H      -1.2884297286     -2.1437306510     -0.0810688991
H       1.2285508332     -2.0816620135     -0.0724207108
