12
benzene_id: linear acene, 1 rings, ideal a=1.40 A planar
C    -1.2124355653     0.7000000000     0.0000000000
C    -1.2124355653    -0.7000000000     0.0000000000
C     1.2124355653     0.7000000000     0.0000000000
C     1.2124355653    -0.7000000000     0.0000000000
C     0.0000000000     1.4000000000     0.0000000000
C     0.0000000000    -1.4000000000     0.0000000000
H    -2.1564032554     1.2450000000     0.0000000000
H    -2.1564032554    -1.2450000000     0.0000000000
H     2.1564032554     1.2450000000     0.0000000000
H     2.1564032554    -1.2450000000     0.0000000000
H     0.0000000000     2.4900000000     0.0000000000
H     0.0000000000    -2.4900000000     0.0000000000
