12
benzene_t optimised (CG)  E = -12.76278607 Ha  |g|max = 0.000097
C       1.3598251965      0.1009654553      0.0123657877
C       0.6068326782      1.3329168742      0.0585239491
C      -0.8371296508      1.2973110269      0.0533611624
C      -1.5281406311      0.0296599869      0.0027343394
C      -0.7751179788     -1.2020349539     -0.0434509188
C       0.6690341921     -1.1664826422     -0.0386557861
H       2.4327543826      0.1275045190      0.0159009908
H       1.1206242341      2.2742666507      0.0975049295
H      -1.3966250754      2.2126480285      0.0869087987
H      -2.6009141164      0.0029922293     -0.0002047696
H      -1.2884297286     -2.1437306510     -0.0810688991
H       1.2285508332     -2.0816620135     -0.0724207108
