10
1,3-butadiene: s-trans planar, 1.34/1.47/1.34
C    -1.4765140070     1.1161408469     0.0000000000
C    -0.7349693310     0.0000263844     0.0000000000
C     0.7350306690     0.0000263844     0.0000000000
C     1.4764526690    -1.1161936156     0.0000000000
H    -2.5613690608     1.0478875522     0.0000000000
H    -0.9931955672     2.0897795303     0.0000000000
H    -1.3290797079    -0.9102493212     0.0000000000
H     1.3291718094     0.9102820107     0.0000000000
H     2.5613158942    -1.0480703264     0.0000000000
H     0.9930175555    -2.0897743730     0.0000000000
