10
step 0  E = -9.24391117 Ha
C      -1.4765140070      1.1161408469      0.0000000000
C      -0.7349693310      0.0000263844      0.0000000000
C       0.7350306690      0.0000263844      0.0000000000
C       1.4764526690     -1.1161936156      0.0000000000
H      -2.5613690608      1.0478875522      0.0000000000
H      -0.9931955672      2.0897795303      0.0000000000
H      -1.3290797079     -0.9102493212      0.0000000000
H       1.3291718094      0.9102820107      0.0000000000
H       2.5613158942     -1.0480703264      0.0000000000
H       0.9930175555     -2.0897743730      0.0000000000
10
step 1  E = -9.24821296 Ha  |g|max = 0.016729
C      -1.4866309837      1.1370683052     -0.0000000000
C      -0.7532743484     -0.0130558865      0.0000000000
C       0.7533372402      0.0130977570     -0.0000000000
C       1.4865665171     -1.1371082354      0.0000000000
H      -2.5565486798      1.0505446971      0.0000000000
H      -0.9983479391      2.0872842643      0.0000000000
H      -1.3206533589     -0.9109505567      0.0000000000
H       1.3207474777      0.9109807312     -0.0000000000
H       2.5564953609     -1.0507272242      0.0000000000
H       0.9981696373     -2.0872787793      0.0000000000
10
step 2  E = -9.24972135 Ha  |g|max = 0.011579
C      -1.4944165798      1.1434965900     -0.0000000000
C      -0.7668859623      0.0012169862      0.0000000000
C       0.7669399513     -0.0011753276     -0.0000000000
C       1.4943577968     -1.1435371204     -0.0000000000
H      -2.5560928814      1.0602116369     -0.0000000000
H      -1.0048979301      2.0939929821      0.0000000000
H      -1.3116906699     -0.9273683940     -0.0000000000
H       1.3117864965      0.9273881691      0.0000000000
H       2.5560390283     -1.0603930425     -0.0000000000
H       1.0047216738     -2.0939774069      0.0000000000
10
step 3  E = -9.25138988 Ha  |g|max = 0.014362
C      -1.5042756422      1.1619817311      0.0000000000
C      -0.7598833915      0.0028635658      0.0000000000
C       0.7599278043     -0.0028355784      0.0000000000
C       1.5042134623     -1.1620094523     -0.0000000000
H      -2.5708711664      1.0853837567     -0.0000000000
H      -1.0208412512      2.1138553239      0.0000000000
H      -1.2872418200     -0.9503801241     -0.0000000000
H       1.2873409525      0.9503811630      0.0000000000
H       2.5708241304     -1.0855621320      0.0000000000
H       1.0206678450     -2.1138231810      0.0000000000
10
step 4  E = -9.25241347 Ha  |g|max = 0.005581
C      -1.5039223717      1.1593334524     -0.0000000000
C      -0.7637564871      0.0034753159     -0.0000000000
C       0.7637893337     -0.0034454106      0.0000000000
C       1.5038721786     -1.1593619436     -0.0000000000
H      -2.5840258482      1.1069113436     -0.0000000000
H      -1.0333922270      2.1327259914      0.0000000000
H      -1.2637539745     -0.9568636210     -0.0000000000
H       1.2638526159      0.9568517070      0.0000000000
H       2.5839786059     -1.1070850711      0.0000000000
H       1.0332190978     -2.1326866912      0.0000000000
10
step 5  E = -9.25270817 Ha  |g|max = 0.007209
C      -1.5074812520      1.1586926981     -0.0000000000
C      -0.7623432968      0.0011253723      0.0000000000
C       0.7623795155     -0.0011028285      0.0000000000
C       1.5074274996     -1.1587171762     -0.0000000000
H      -2.5810170052      1.1160638506     -0.0000000000
H      -1.0414961758      2.1323782408      0.0000000000
H      -1.2542540596     -0.9516101967     -0.0000000000
H       1.2543505179      0.9516022844      0.0000000000
H       2.5809717389     -1.1162311359      0.0000000000
H       1.0413234408     -2.1323460361     -0.0000000000
10
step 6  E = -9.25284839 Ha  |g|max = 0.001326
C      -1.5065665005      1.1565574899     -0.0000000000
C      -0.7602790418      0.0058003227      0.0000000000
C       0.7603151201     -0.0057737883      0.0000000000
C       1.5065157355     -1.1565892886     -0.0000000000
H      -2.5795624446      1.1216902264     -0.0000000000
H      -1.0475493326      2.1296441039      0.0000000000
H      -1.2502274332     -0.9499829345     -0.0000000000
H       1.2503204564      0.9499775764      0.0000000000
H       2.5795158148     -1.1218518084      0.0000000000
H       1.0473785491     -2.1296168269     -0.0000000000
10
step 7  E = -9.25285351 Ha  |g|max = 0.000664
C      -1.5062747882      1.1572962271     -0.0000000000
C      -0.7601558412      0.0056741301      0.0000000000
C       0.7601928882     -0.0056486248      0.0000000000
C       1.5062234280     -1.1573276722     -0.0000000000
H      -2.5799190633      1.1219439555     -0.0000000000
H      -1.0482037627      2.1290612169      0.0000000000
H      -1.2505363877     -0.9499001276     -0.0000000000
H       1.2506283975      0.9498961716      0.0000000000
H       2.5798720703     -1.1221042812      0.0000000000
H       1.0480339823     -2.1290359227     -0.0000000000
10
step 8  E = -9.25286133 Ha  |g|max = 0.001158
C      -1.5073520849      1.1571104536      0.0000000000
C      -0.7609464494      0.0064097232      0.0000000000
C       0.7609862915     -0.0063837044      0.0000000000
C       1.5073010930     -1.1571478351     -0.0000000000
H      -2.5812033383      1.1232634812     -0.0000000000
H      -1.0504053932      2.1289950515      0.0000000000
H      -1.2538595724     -0.9493983361     -0.0000000000
H       1.2539427232      0.9494017759      0.0000000000
H       2.5811530410     -1.1234141644     -0.0000000000
H       1.0502446126     -2.1289813727     -0.0000000000
10
step 9  E = -9.25286535 Ha  |g|max = 0.000342
C      -1.5083946165      1.1572044966      0.0000000000
C      -0.7612341158      0.0059011498     -0.0000000000
C       0.7612745940     -0.0058773870      0.0000000000
C       1.5083422977     -1.1572421306     -0.0000000000
H      -2.5818982966      1.1239055505     -0.0000000000
H      -1.0515557304      2.1293114902     -0.0000000000
H      -1.2555196386     -0.9484974339     -0.0000000000
H       1.2555979508      0.9485042535      0.0000000000
H       2.5818477645     -1.1240509371     -0.0000000000
H       1.0514007141     -2.1293039793     -0.0000000000
10
step 10  E = -9.25286655 Ha  |g|max = 0.000440
C      -1.5084307566      1.1569896163      0.0000000000
C      -0.7611924422      0.0060468318      0.0000000000
C       0.7612289588     -0.0060234328      0.0000000000
C       1.5083794312     -1.1570265861      0.0000000000
H      -2.5824851977      1.1239179402     -0.0000000000
H      -1.0519603554      2.1298183741      0.0000000000
H      -1.2559187780     -0.9478282360     -0.0000000000
H       1.2559949575      0.9478328966      0.0000000000
H       2.5824359160     -1.1240615277     -0.0000000000
H       1.0518091897     -2.1298108037     -0.0000000000
10
step 11  E = -9.25286855 Ha  |g|max = 0.000718
C      -1.5088464312      1.1578712047      0.0000000000
C      -0.7606992529      0.0069077396      0.0000000000
C       0.7607244751     -0.0068896229     -0.0000000000
C       1.5087968724     -1.1579013750      0.0000000000
H      -2.5831814643      1.1233750282     -0.0000000000
H      -1.0530878108      2.1306406272      0.0000000000
H      -1.2564062064     -0.9464158742     -0.0000000000
H       1.2564769807      0.9464115287      0.0000000000
H       2.5831365205     -1.1235142309     -0.0000000000
H       1.0529472402     -2.1306299526     -0.0000000000
10
step 12  E = -9.25287090 Ha  |g|max = 0.000333
C      -1.5094434135      1.1586960893      0.0000000000
C      -0.7610957732      0.0084146517      0.0000000000
C       0.7611080978     -0.0084011903     -0.0000000000
C       1.5093980371     -1.1587225029      0.0000000000
H      -2.5835096417      1.1225406562     -0.0000000000
H      -1.0545370114      2.1319396922      0.0000000000
H      -1.2568754201     -0.9447184944     -0.0000000000
H       1.2569373481      0.9447029440      0.0000000000
H       2.5834682824     -1.1226719665      0.0000000000
H       1.0544104177     -2.1319248066     -0.0000000000
10
step 13  E = -9.25287148 Ha  |g|max = 0.000305
C      -1.5095340910      1.1591158422      0.0000000000
C      -0.7611964455      0.0084121129      0.0000000000
C       0.7612100635     -0.0084031440     -0.0000000000
C       1.5094885696     -1.1591417885      0.0000000000
H      -2.5833638544      1.1222378648     -0.0000000000
H      -1.0550908285      2.1325363189      0.0000000000
H      -1.2570733906     -0.9443457975     -0.0000000000
H       1.2571307766      0.9443310452      0.0000000000
H       2.5833224341     -1.1223633215      0.0000000000
H       1.0549676893     -2.1325240598      0.0000000000
10
step 14  E = -9.25287266 Ha  |g|max = 0.000096
C      -1.5091591046      1.1595814054      0.0000000000
C      -0.7611319139      0.0088114651     -0.0000000000
C       0.7611493291     -0.0088066197     -0.0000000000
C       1.5091169986     -1.1596150758      0.0000000000
H      -2.5830214337      1.1215831356     -0.0000000000
H      -1.0564080432      2.1341254485      0.0000000000
H      -1.2577487208     -0.9440380810     -0.0000000000
H       1.2577933255      0.9440276996      0.0000000000
H       2.5829782869     -1.1216917279      0.0000000000
H       1.0562921991     -2.1341225770      0.0000000000
