14
tight_c optimised (CG)  E = -11.00249836 Ha  |g|max = 0.000090
C       0.0760478092     -0.4390254605      0.4126049180
C       1.3133302146      0.1906388263     -0.3415514905
C       2.6394466744      0.1254447056      0.5210443033
C       3.8658653673      0.7971872598     -0.2140934937
H       0.2632998332     -1.4795276565      0.6393238641
H      -0.8048374478     -0.3722307057     -0.2116268393
H      -0.1115505665      0.0909120788      1.3362394785
H       1.0911920735      1.2216908296     -0.5809262097
H       1.4652367430     -0.3408275037     -1.2710871485
H       2.8789390163     -0.9080687163      0.7309368581
H       2.4780131934      0.6273269756      1.4652551568
H       3.6713331337      1.8465671631     -0.3870716920
H       4.0458592808      0.3146824058     -1.1646333166
H       4.7536706731      0.7039583213      0.3965419909
