10
butadiene optimised (CG)  E = -9.25287266 Ha  |g|max = 0.000096
C      -1.5091591046      1.1595814054      0.0000000000
C      -0.7611319139      0.0088114651     -0.0000000000
C       0.7611493291     -0.0088066197     -0.0000000000
C       1.5091169986     -1.1596150758      0.0000000000
H      -2.5830214337      1.1215831356     -0.0000000000
H      -1.0564080432      2.1341254485      0.0000000000
H      -1.2577487208     -0.9440380810     -0.0000000000
H       1.2577933255      0.9440276996      0.0000000000
H       2.5829782869     -1.1216917279      0.0000000000
H       1.0562921991     -2.1341225770      0.0000000000
