14
step 0  E = -10.84358877 Ha
C       0.1726001661     -0.3447204757      0.4954346264
C       1.1716563358     -0.0713284296     -0.4777185663
C       2.3210538922     -0.0426352307      0.3286040764
C       4.1131363559      1.0655260541     -0.1339482687
H       0.1884583050     -1.4058341644      0.7442041163
H      -0.8062043652     -0.0798440176      0.0955819642
H       0.3693731679      0.2418531571      1.3928262683
H       1.0019743820      0.8757747751     -0.9898743572
H       1.2239242359     -0.8436861803     -1.2450721820
H       2.6310011457     -1.0806880779      0.4489327367
H       1.9940089166      0.3078233016      1.3075424815
H       3.8744673410      2.1262184622     -0.2118502381
H       4.5228900683      0.7147649561     -1.0811380846
H       4.8475064986      0.9154964335      0.6574376084
14
step 1  E = -10.90949898 Ha  |g|max = 0.081241
C       0.0920601781     -0.3628573886      0.5457559943
C       1.1652691524     -0.0480097144     -0.5925203703
C       2.4621726865     -0.0175297144      0.3730233128
C       4.0633273157      1.0357995358     -0.1240354923
H       0.1859777088     -1.4022652956      0.7459659015
H      -0.8075596135     -0.0826039217      0.1005375901
H       0.3648157769      0.2388581014      1.3915465578
H       0.9989383618      0.8747757267     -0.9902525369
H       1.2235349004     -0.8418732682     -1.2443639787
H       2.6389737754     -1.0762109589      0.4506203312
H       2.0057159312      0.3117810050      1.3069526920
H       3.8720796105      2.1212465141     -0.2108443014
H       4.5187550141      0.7139825379     -1.0776306575
H       4.8417856473      0.9136274044      0.6562071388
14
step 2  E = -10.94553543 Ha  |g|max = 0.039491
C       0.0844566626     -0.3637450777      0.5399994634
C       1.1978785451     -0.0436727646     -0.5570390444
C       2.5957146107      0.0513031894      0.3451917748
C       3.9732558849      0.9723768217     -0.0921460283
H       0.1759500278     -1.4137683762      0.7555791412
H      -0.8495786662     -0.0813073446      0.1038768576
H       0.3551111944      0.2383563963      1.3989636092
H       0.9836261474      0.9235627124     -1.0239785750
H       1.2257670634     -0.8704889606     -1.2821036245
H       2.6664853015     -1.0741327184      0.4582462606
H       2.0346944321      0.3209607831      1.3068793257
H       3.8617110868      2.0992544624     -0.2066100458
H       4.5008691439      0.7106631584     -1.0625703734
H       4.8199050113      0.9093582820      0.6466734402
14
step 3  E = -10.96878466 Ha  |g|max = 0.053504
C       0.1348689373     -0.3465612397      0.4971542152
C       1.2728758343     -0.0093049977     -0.5264006364
C       2.5937032317      0.0633633703      0.3176798039
C       3.9431921593      0.9451885536     -0.0794303990
H       0.1527508031     -1.4241219384      0.7704176304
H      -0.8965936709     -0.0860714228      0.1175387102
H       0.3321485154      0.2316362052      1.4083651991
H       0.9761195904      0.9217479953     -1.0431567553
H       1.2338504288     -0.8539219492     -1.2893614041
H       2.7401837447     -1.0098597627      0.4611729194
H       2.1308955875      0.3411354248      1.2675352939
H       3.8219684640      2.0211134161     -0.1888962895
H       4.4367557690      0.6946917990     -1.0092496493
H       4.7531270512      0.8896851096      0.6275935427
14
step 4  E = -10.98168958 Ha  |g|max = 0.032770
C       0.1229198254     -0.3454190366      0.4954012013
C       1.2826032924      0.0054573532     -0.5796966810
C       2.6095100700      0.0690150089      0.3138090186
C       3.9116975329      0.9288796656     -0.0780759531
H       0.1394595077     -1.4053927923      0.7701747430
H      -0.8856165595     -0.0972861456      0.1345885178
H       0.3116701510      0.2205347661      1.4047326138
H       0.9849858645      0.9057973017     -1.0459245045
H       1.2532609496     -0.8112110175     -1.2695220996
H       2.8095312744     -0.9649619190      0.4607699724
H       2.2116818159      0.3676932353      1.2489845663
H       3.7760350187      1.9742425862     -0.1733878646
H       4.3876567960      0.6676884522     -0.9867525689
H       4.7104509070      0.8636831053      0.6358612199
14
step 5  E = -10.98978316 Ha  |g|max = 0.024359
C       0.1146170693     -0.3434634331      0.4903884390
C       1.2616858299     -0.0039912969     -0.5634571379
C       2.6141269165      0.0806204384      0.2825357775
C       3.8903667618      0.9081575650     -0.0689315923
H       0.1334692747     -1.3819251680      0.7616935313
H      -0.8603143231     -0.1070363415      0.1459490993
H       0.2954834036      0.2125921332      1.3974681290
H       0.9940210411      0.9205068089     -1.0638494746
H       1.2796046129     -0.7893397943     -1.2728158894
H       2.8781104874     -0.9561435685      0.4595348410
H       2.2671862386      0.4055832312      1.2649191471
H       3.7202869054      1.9725985379     -0.1621786998
H       4.3556046883      0.6279987901     -1.0024196275
H       4.6815975393      0.8325626611      0.6621256386
14
step 6  E = -10.99361313 Ha  |g|max = 0.016461
C       0.1251884459     -0.3409812676      0.4942817167
C       1.2466550416      0.0084589885     -0.5432496120
C       2.5986084295      0.0705520935      0.2911084309
C       3.8973044430      0.9168954803     -0.0838947766
H       0.1322896318     -1.3778232175      0.7560188822
H      -0.8608012787     -0.1070522413      0.1420966171
H       0.2875098126      0.2117953185      1.3953700410
H       1.0025376197      0.9259332053     -1.0713761140
H       1.2970054457     -0.7899160397     -1.2870415740
H       2.9160745502     -0.9511942215      0.4551623756
H       2.2983861424      0.4266572506      1.2690729377
H       3.6852912089      1.9720696737     -0.1555945967
H       4.3366635284      0.6032750174     -1.0133124698
H       4.6631334247      0.8100505232      0.6823203233
14
step 7  E = -10.99515044 Ha  |g|max = 0.011382
C       0.1169232526     -0.3383535354      0.4999418135
C       1.2532451949      0.0105352921     -0.5562049548
C       2.6038754177      0.0680723415      0.3122592243
C       3.8950045581      0.9222443956     -0.0939774283
H       0.1359894753     -1.3885766960      0.7531527512
H      -0.8669357094     -0.1034210763      0.1330696903
H       0.2861281723      0.2189154144      1.4040394182
H       1.0096084872      0.9264683281     -1.0683724665
H       1.3053465926     -0.7835708575     -1.2868138849
H       2.9304248832     -0.9503247569      0.4503286675
H       2.3118608977      0.4354144089      1.2722467533
H       3.6673883085      1.9739971983     -0.1543965675
H       4.3293468583      0.5906972640     -1.0238906217
H       4.6476400567      0.7966228428      0.6895797868
14
step 8  E = -10.99597010 Ha  |g|max = 0.007258
C       0.1121241523     -0.3390140026      0.4981813035
C       1.2653278466      0.0072836723     -0.5499824205
C       2.6140293399      0.0709814083      0.3116779312
C       3.8875001775      0.9182726329     -0.0953743988
H       0.1402029158     -1.3957614291      0.7497281349
H      -0.8736095222     -0.0991848580      0.1238965027
H       0.2852691961      0.2264987027      1.4126886438
H       1.0166576596      0.9310427469     -1.0655615889
H       1.3123242601     -0.7800553691     -1.2876677875
H       2.9386264652     -0.9530320301      0.4480828331
H       2.3172409338      0.4428051020      1.2860372488
H       3.6550594337      1.9772698041     -0.1561801486
H       4.3237827917      0.5834295955     -1.0326092730
H       4.6313107956      0.7881845876      0.6880452006
14
step 9  E = -10.99648349 Ha  |g|max = 0.007719
C       0.1160024818     -0.3387874440      0.4995392952
C       1.2714332896      0.0111818529     -0.5330299347
C       2.6138995971      0.0699410023      0.3170773796
C       3.8821114205      0.9195608593     -0.1063796501
H       0.1435100774     -1.3944905010      0.7439705456
H      -0.8760301770     -0.0953852862      0.1139064432
H       0.2805516787      0.2274622357      1.4104504353
H       1.0293800595      0.9312251295     -1.0566025261
H       1.3216922617     -0.7788934948     -1.2890112806
H       2.9439958120     -0.9540248182      0.4479200269
H       2.3237289314      0.4441462769      1.2956326672
H       3.6463365672      1.9729959432     -0.1605749728
H       4.3143261924      0.5817696017     -1.0339866457
H       4.6149082535      0.7820192063      0.6820503983
14
step 10  E = -10.99730307 Ha  |g|max = 0.007871
C       0.1107279513     -0.3336419797      0.4981443745
C       1.2759951702      0.0089399162     -0.5226264779
C       2.6145875402      0.0670856933      0.3382723800
C       3.8642274977      0.9199035858     -0.1193969034
H       0.1488864398     -1.3887460839      0.7330950821
H      -0.8642069355     -0.0920445894      0.0990387035
H       0.2687510764      0.2257638831      1.4034709059
H       1.0573912539      0.9307154915     -1.0329551155
H       1.3405554560     -0.7655134676     -1.2770663654
H       2.9516098777     -0.9533139054      0.4500268163
H       2.3395198740      0.4403990917      1.3079973683
H       3.6315379316      1.9659137718     -0.1727123962
H       4.2976152475      0.5795899873     -1.0424409030
H       4.5886480650      0.7736691689      0.6681147120
14
step 11  E = -10.99774327 Ha  |g|max = 0.005736
C       0.1094021431     -0.3340233616      0.4901009187
C       1.2805971051      0.0061937570     -0.5143055058
C       2.6132447259      0.0626379957      0.3403909059
C       3.8507934178      0.9133549661     -0.1201050915
H       0.1499794222     -1.3854002836      0.7277186890
H      -0.8574891285     -0.0903142480      0.0893345117
H       0.2606732985      0.2270912064      1.4041205191
H       1.0740413139      0.9365105523     -1.0193597847
H       1.3521886664     -0.7586472794     -1.2682830179
H       2.9561832331     -0.9540096879      0.4545475135
H       2.3482057696      0.4378242473      1.3216610884
H       3.6212083544      1.9683472357     -0.1823442092
H       4.2871338376      0.5772717724     -1.0527040251
H       4.5796842867      0.7718836911      0.6601896692
14
step 12  E = -10.99818193 Ha  |g|max = 0.008258
C       0.1154433849     -0.3339698374      0.4872823040
C       1.2869075485      0.0132538322     -0.5061294320
C       2.6065553293      0.0539772605      0.3475678085
C       3.8415190873      0.9117908884     -0.1287785777
H       0.1470255583     -1.3857948856      0.7235102375
H      -0.8575434560     -0.0876782099      0.0730374094
H       0.2487287688      0.2273758317      1.4036211625
H       1.0926033639      0.9484388815     -1.0038578819
H       1.3655880595     -0.7584539144     -1.2625237206
H       2.9615813368     -0.9588764210      0.4640723768
H       2.3582251065      0.4304876521      1.3360841596
H       3.6081491684      1.9692723825     -0.1946329161
H       4.2696384824      0.5747466019     -1.0626570601
H       4.5814247071      0.7741505011      0.6543663113
14
step 13  E = -10.99892088 Ha  |g|max = 0.009226
C       0.1080641226     -0.3284869912      0.4846540877
C       1.2960339512      0.0212199487     -0.5043883044
C       2.6133089829      0.0450420819      0.3747560552
C       3.8329143574      0.9144832933     -0.1368042804
H       0.1392701675     -1.3907707437      0.7174834181
H      -0.8506865708     -0.0863361260      0.0449088190
H       0.2259485491      0.2264508161      1.4017371133
H       1.1239917355      0.9756998669     -0.9779416233
H       1.3873903811     -0.7559336213     -1.2513895962
H       2.9688945380     -0.9718214951      0.4833651408
H       2.3750109210      0.4118188031      1.3559805503
H       3.5839515491      1.9636147750     -0.2169775640
H       4.2339412908      0.5688697794     -1.0806163865
H       4.5878124705      0.7848701763      0.6361947517
14
step 14  E = -10.99951189 Ha  |g|max = 0.007935
C       0.0996872531     -0.3309094497      0.4752908736
C       1.3054806612      0.0243639779     -0.4908985220
C       2.6283517794      0.0381538892      0.3858630141
C       3.8290048464      0.9112450983     -0.1353815235
H       0.1312180491     -1.3886821354      0.7114085929
H      -0.8448011275     -0.0862962165      0.0228030741
H       0.2066234907      0.2274884602      1.4022726974
H       1.1485103664      0.9970552448     -0.9592195452
H       1.4028710309     -0.7504227581     -1.2447265986
H       2.9732580108     -0.9818219046      0.4993157653
H       2.3849780456      0.3980869735      1.3784216329
H       3.5630485058      1.9579964033     -0.2342296816
H       4.2027201088      0.5629764044     -1.0938731928
H       4.5948954252      0.7994865762      0.6139155947
14
step 15  E = -11.00028145 Ha  |g|max = 0.009595
C       0.1017838775     -0.3323117828      0.4688240924
C       1.3240600025      0.0328536596     -0.4632585217
C       2.6404631604      0.0269311369      0.4043276529
C       3.8241649290      0.9074753795     -0.1469864824
H       0.1169530540     -1.3812168008      0.7011735654
H      -0.8462942613     -0.0863012113     -0.0096858792
H       0.1771047873      0.2247235642      1.3942471769
H       1.1798185237      1.0058511236     -0.9319142984
H       1.4180939796     -0.7313497549     -1.2378457987
H       2.9792258006     -0.9935910591      0.5177336171
H       2.3964906838      0.3799286450      1.4051107814
H       3.5348244277      1.9443657263     -0.2513780697
H       4.1596299335      0.5541380513     -1.1021017503
H       4.6195275475      0.8272238860      0.5827160954
14
step 16  E = -11.00117134 Ha  |g|max = 0.005294
C       0.0932973033     -0.3209176713      0.4568836468
C       1.3449301012      0.0372385328     -0.4416478217
C       2.6534457474      0.0162079110      0.4401175169
C       3.8163440636      0.9046173285     -0.1506596898
H       0.1001847342     -1.3798655617      0.6898029023
H      -0.8399466262     -0.0889080421     -0.0445530584
H       0.1407895408      0.2209605841      1.3839543779
H       1.2151137374      1.0066397693     -0.8966204920
H       1.4332473277     -0.6982431343     -1.2256891721
H       2.9879014465     -1.0078363214      0.5362964651
H       2.4122169913      0.3587080115      1.4297548987
H       3.5007080932      1.9278001581     -0.2685536883
H       4.1145143909      0.5385638279     -1.1188556994
H       4.6530995947      0.8637551711      0.5407319953
14
step 17  E = -11.00141483 Ha  |g|max = 0.004929
C       0.0880925641     -0.3225576587      0.4500525085
C       1.3465581646      0.0360954854     -0.4336002660
C       2.6585493313      0.0115096804      0.4475168029
C       3.8159486680      0.9009192138     -0.1465582706
H       0.0959226429     -1.3780061391      0.6855786282
H      -0.8355779659     -0.0889807561     -0.0540552355
H       0.1299028311      0.2233565952      1.3845482471
H       1.2235411027      1.0082829941     -0.8871770908
H       1.4376286271     -0.6897023034     -1.2247561781
H       2.9920130259     -1.0115354449      0.5400828649
H       2.4165164447      0.3562765913      1.4408643724
H       3.4899220150      1.9259702474     -0.2714173546
H       4.1049000279      0.5319120995     -1.1247690325
H       4.6619289663      0.8751799586      0.5246521854
14
step 18  E = -11.00162895 Ha  |g|max = 0.004196
C       0.0855416057     -0.3259545439      0.4527964516
C       1.3451623479      0.0348382190     -0.4256149152
C       2.6602834474      0.0063396198      0.4557588215
C       3.8147914766      0.8987447130     -0.1516269978
H       0.0920971489     -1.3771915345      0.6802104679
H      -0.8338285584     -0.0865592392     -0.0665663801
H       0.1178464840      0.2265123976      1.3825109324
H       1.2283604783      1.0117049295     -0.8779327823
H       1.4421312727     -0.6851394617     -1.2287536688
H       2.9993039484     -1.0161910001      0.5418473916
H       2.4217806416      0.3578070091      1.4538564467
H       3.4799684749      1.9228323707     -0.2694617796
H       4.0992873968      0.5248029827     -1.1241285122
H       4.6731202811      0.8861741016      0.5080667056
14
step 19  E = -11.00172099 Ha  |g|max = 0.002547
C       0.0821325863     -0.3231645026      0.4537836509
C       1.3465878443      0.0339994544     -0.4250479746
C       2.6605691088      0.0061920099      0.4612873470
C       3.8127235872      0.8992875930     -0.1530938987
H       0.0901004880     -1.3811140057      0.6787161909
H      -0.8318580495     -0.0854117690     -0.0721891070
H       0.1114701533      0.2279474010      1.3811630047
H       1.2286998318      1.0126073141     -0.8719916751
H       1.4436212881     -0.6828556384     -1.2297609460
H       3.0036830535     -1.0184723520      0.5424607625
H       2.4258974771      0.3585092300      1.4574855147
H       3.4758380087      1.9197909266     -0.2673380734
H       4.0985093173      0.5207432869     -1.1239486772
H       4.6778717509      0.8906616152      0.4994360625
14
step 20  E = -11.00176848 Ha  |g|max = 0.002414
C       0.0812450524     -0.3241518409      0.4507897828
C       1.3484436919      0.0341970634     -0.4239186670
C       2.6623750298      0.0058866295      0.4621120610
C       3.8118761584      0.8981070639     -0.1512954007
H       0.0880636296     -1.3828641055      0.6784447977
H      -0.8308652516     -0.0842977018     -0.0756472595
H       0.1067895749      0.2300005991      1.3819414983
H       1.2269464631      1.0126692010     -0.8670012006
H       1.4438442169     -0.6818785579     -1.2294847745
H       3.0063407842     -1.0173374061      0.5430987786
H       2.4295996089      0.3591649658      1.4584271152
H       3.4732229251      1.9186871289     -0.2658151148
H       4.0990886911      0.5181186631     -1.1241189564
H       4.6788758711      0.8924188612      0.4934295211
14
step 21  E = -11.00180969 Ha  |g|max = 0.002104
C       0.0826391883     -0.3263657716      0.4504989133
C       1.3499653979      0.0336379324     -0.4212206989
C       2.6644348415      0.0051842477      0.4619131897
C       3.8117654895      0.8967512351     -0.1535932716
H       0.0850418241     -1.3825720648      0.6781909580
H      -0.8307372022     -0.0829391138     -0.0801436720
H       0.1013370290      0.2305093234      1.3798970164
H       1.2237090499      1.0134881823     -0.8614436067
H       1.4438470262     -0.6810033610     -1.2285233251
H       3.0091870693     -1.0149618794      0.5441701517
H       2.4342005061      0.3598112871      1.4582149006
H       3.4707398174      1.9176037119     -0.2642494309
H       4.0993556871      0.5165652217     -1.1223489761
H       4.6803607216      0.8930116125      0.4896000330
14
step 22  E = -11.00185136 Ha  |g|max = 0.001980
C       0.0804368118     -0.3257534832      0.4504876553
C       1.3504791899      0.0325803026     -0.4182258970
C       2.6665962143      0.0061858420      0.4618435756
C       3.8125653485      0.8978685871     -0.1559235647
H       0.0809737421     -1.3831298284      0.6785540838
H      -0.8274434537     -0.0826366639     -0.0844754881
H       0.0950523254      0.2294104075      1.3754806422
H       1.2193412983      1.0144210949     -0.8544108119
H       1.4438986631     -0.6796966332     -1.2267527458
H       3.0133160518     -1.0141820187      0.5458444013
H       2.4401467760      0.3606435487      1.4570584304
H       3.4684978359      1.9156504324     -0.2632175484
H       4.0999310575      0.5148735848     -1.1226661734
H       4.6820545848      0.8924853909      0.4873656220
14
step 23  E = -11.00188359 Ha  |g|max = 0.001681
C       0.0782336517     -0.3276160377      0.4483467207
C       1.3491678020      0.0331136522     -0.4155161159
C       2.6691227926      0.0063479648      0.4611872610
C       3.8145812770      0.8981953741     -0.1557725588
H       0.0769757861     -1.3831208040      0.6791648119
H      -0.8245762993     -0.0827718297     -0.0887576418
H       0.0898656063      0.2296663064      1.3741853914
H       1.2158898054      1.0144972023     -0.8481828106
H       1.4440054994     -0.6786345206     -1.2252795447
H       3.0170482092     -1.0141183639      0.5472551708
H       2.4450617171      0.3621482869      1.4570451101
H       3.4669679996      1.9156252232     -0.2636596077
H       4.1006349455      0.5138186506     -1.1256368698
H       4.6828676533      0.8915694589      0.4865828648
14
step 24  E = -11.00191684 Ha  |g|max = 0.001861
C       0.0776382490     -0.3302373156      0.4485342138
C       1.3487113092      0.0326176077     -0.4126900238
C       2.6711918713      0.0051421364      0.4615636067
C       3.8167587049      0.8971988953     -0.1586682075
H       0.0717459309     -1.3841519023      0.6800756234
H      -0.8243449703     -0.0830130968     -0.0962494855
H       0.0838580333      0.2302185574      1.3737931969
H       1.2122717170      1.0154190033     -0.8417252938
H       1.4439950104     -0.6765209669     -1.2233550494
H       3.0210792949     -1.0140802007      0.5484223176
H       2.4505643534      0.3645084924      1.4577227198
H       3.4666742807      1.9166592790     -0.2655022954
H       4.1011154935      0.5146301215     -1.1288842712
H       4.6845871678      0.8903299526      0.4879251298
14
step 25  E = -11.00194187 Ha  |g|max = 0.001268
C       0.0746613981     -0.3297505273      0.4493779027
C       1.3501311355      0.0317758099     -0.4096775259
C       2.6725337780      0.0050069849      0.4623755725
C       3.8175286939      0.8975074897     -0.1606361830
H       0.0673517491     -1.3869341223      0.6811960882
H      -0.8235276645     -0.0842340820     -0.1021493529
H       0.0789487088      0.2301352821      1.3733651766
H       1.2098754287      1.0164921588     -0.8369060408
H       1.4439034013     -0.6746368343     -1.2224680317
H       3.0239834700     -1.0145566854      0.5491159701
H       2.4550417738      0.3664014396      1.4581224046
H       3.4684241125      1.9159440095     -0.2676291531
H       4.1017948310      0.5162478576     -1.1318047055
H       4.6851956297      0.8893217826      0.4886800595
14
step 26  E = -11.00196103 Ha  |g|max = 0.001169
C       0.0718151980     -0.3312596546      0.4490770057
C       1.3499394395      0.0323771494     -0.4064650404
C       2.6748626984      0.0054600276      0.4630800747
C       3.8183267972      0.8971919030     -0.1607014580
H       0.0634999188     -1.3878933494      0.6819744078
H      -0.8224136870     -0.0859818701     -0.1065104075
H       0.0744038637      0.2303371860      1.3739213069
H       1.2091623989      1.0164153043     -0.8327947208
H       1.4438783070     -0.6731882902     -1.2224740586
H       3.0257097890     -1.0146492411      0.5495119657
H       2.4586226568      0.3678738864      1.4586441971
H       3.4714257206      1.9149949567     -0.2699176342
H       4.1026790540      0.5183689135     -1.1339823184
H       4.6839342909      0.8886736419      0.4875988613
14
step 27  E = -11.00197348 Ha  |g|max = 0.001085
C       0.0715381707     -0.3327104736      0.4496707871
C       1.3490436238      0.0317081376     -0.4048144615
C       2.6757860878      0.0055505886      0.4636405098
C       3.8187876950      0.8961486182     -0.1622444236
H       0.0608108188     -1.3876995691      0.6823344937
H      -0.8223583523     -0.0874907056     -0.1093824207
H       0.0705569526      0.2299076268      1.3737730403
H       1.2095901680      1.0164022420     -0.8300566639
H       1.4438331840     -0.6712804935     -1.2217568754
H       3.0263069446     -1.0141549049      0.5496854059
H       2.4610396695      0.3686910643      1.4593232907
H       3.4741182602      1.9150416952     -0.2715202373
H       4.1033765362      0.5202203499     -1.1342267645
H       4.6834166871      0.8883863876      0.4865365006
14
step 28  E = -11.00198269 Ha  |g|max = 0.001001
C       0.0707274871     -0.3323868241      0.4497372778
C       1.3492210078      0.0310251206     -0.4033617746
C       2.6748375952      0.0055805726      0.4635392502
C       3.8184167630      0.8963003321     -0.1633457578
H       0.0588826286     -1.3883258868      0.6828631003
H      -0.8219155867     -0.0893470795     -0.1107304571
H       0.0668111231      0.2289697488      1.3731816870
H       1.2105655090      1.0164716220     -0.8278108355
H       1.4437557679     -0.6695337155     -1.2209757727
H       3.0263838661     -1.0136666176      0.5498781159
H       2.4630058119      0.3691424215      1.4601165725
H       3.4766884293      1.9154857649     -0.2726971908
H       4.1045059072      0.5208938443     -1.1349782396
H       4.6839601361      0.8881112602      0.4855462056
14
step 29  E = -11.00198889 Ha  |g|max = 0.000753
C       0.0697896993     -0.3331964674      0.4491646295
C       1.3489886766      0.0319158832     -0.4022548390
C       2.6746239671      0.0060016014      0.4638564781
C       3.8184212610      0.8965206640     -0.1633094338
H       0.0578044801     -1.3885503684      0.6832754021
H      -0.8218351710     -0.0908954532     -0.1114024612
H       0.0635902261      0.2285284268      1.3732148327
H       1.2117141853      1.0164287218     -0.8260045512
H       1.4437386565     -0.6688726752     -1.2208581165
H       3.0261346863     -1.0133330836      0.5500355661
H       2.4643124122      0.3692210091      1.4605177338
H       3.4784529300      1.9166511981     -0.2735153779
H       4.1056109598      0.5205380481     -1.1361330494
H       4.6844994766      0.8877630589      0.4843753680
14
step 30  E = -11.00199605 Ha  |g|max = 0.000777
C       0.0689990721     -0.3345331629      0.4494419605
C       1.3483180685      0.0322534937     -0.4014561430
C       2.6757445238      0.0069327789      0.4647617044
C       3.8193670611      0.8966555951     -0.1646051480
H       0.0571462871     -1.3890474970      0.6837050730
H      -0.8231169643     -0.0928275131     -0.1126790150
H       0.0590616165      0.2278730874      1.3730631811
H       1.2131592470      1.0178704486     -0.8241693392
H       1.4437540098     -0.6680452826     -1.2204404062
H       3.0254200033     -1.0128882107      0.5501689176
H       2.4655061044      0.3691804439      1.4611886230
H       3.4804245060      1.9185842720     -0.2743030491
H       4.1065146062      0.5196010200     -1.1365149937
H       4.6855483045      0.8871110902      0.4828008158
14
step 31  E = -11.00200128 Ha  |g|max = 0.000830
C       0.0677032727     -0.3345766238      0.4494673102
C       1.3486383358      0.0324504988     -0.4005169698
C       2.6762992766      0.0075734378      0.4645347531
C       3.8201689165      0.8975809382     -0.1656507810
H       0.0571342335     -1.3901909226      0.6841005351
H      -0.8241372638     -0.0946000724     -0.1135484053
H       0.0555463617      0.2272818400      1.3728543851
H       1.2139338263      1.0194574655     -0.8229361554
H       1.4437775329     -0.6673297094     -1.2199488975
H       3.0249405307     -1.0126200306      0.5502819366
H       2.4662095170      0.3693817110      1.4621602172
H       3.4820975520      1.9191986051     -0.2748026995
H       4.1068646743      0.5185675712     -1.1366169524
H       4.6866696794      0.8865458546      0.4815839050
14
step 32  E = -11.00200477 Ha  |g|max = 0.000770
C       0.0667878922     -0.3350160372      0.4488838341
C       1.3487746073      0.0340553983     -0.3998039456
C       2.6763512612      0.0082891769      0.4644936271
C       3.8207819793      0.8977882953     -0.1654250065
H       0.0577619105     -1.3907178555      0.6841876881
H      -0.8249607838     -0.0962250020     -0.1142461769
H       0.0530364517      0.2271031225      1.3730005065
H       1.2140306855      1.0200058179     -0.8218712540
H       1.4438268675     -0.6666667007     -1.2193660547
H       3.0249763936     -1.0123969804      0.5502547922
H       2.4667172770      0.3696643395      1.4624134213
H       3.4833448647      1.9190543919     -0.2752705481
H       4.1066504352      0.5175815606     -1.1368923786
H       4.6877666040      0.8862010363      0.4806036763
14
step 33  E = -11.00201409 Ha  |g|max = 0.000837
C       0.0657113006     -0.3359871166      0.4483120584
C       1.3478094073      0.0369320498     -0.3982588991
C       2.6768513418      0.0099704173      0.4658357357
C       3.8225154734      0.8961352416     -0.1653561585
H       0.0604618496     -1.3913295238      0.6838334903
H      -0.8276701811     -0.1012354907     -0.1167905436
H       0.0460574456      0.2262078320      1.3725337115
H       1.2133050169      1.0226144739     -0.8194478444
H       1.4440343005     -0.6634491784     -1.2166367842
H       3.0252390448     -1.0109060874      0.5498112993
H       2.4681621686      0.3707002180      1.4624468057
H       3.4866741795      1.9186739846     -0.2767399052
H       4.1051011345      0.5150654233     -1.1368806460
H       4.6915939637      0.8853283199      0.4782998612
14
step 34  E = -11.00202153 Ha  |g|max = 0.000810
C       0.0641516699     -0.3360202130      0.4480177223
C       1.3473267024      0.0384808958     -0.3960598203
C       2.6769873695      0.0105588118      0.4661900715
C       3.8237753924      0.8954237424     -0.1656501806
H       0.0630890702     -1.3917674793      0.6833655920
H      -0.8288878955     -0.1058266292     -0.1186338116
H       0.0405338946      0.2252523134      1.3716113951
H       1.2121548368      1.0256579761     -0.8178711248
H       1.4442719783     -0.6606380206     -1.2147907367
H       3.0252855329     -1.0094416918      0.5494759316
H       2.4692090826      0.3720864643      1.4635155690
H       3.4895593308      1.9177194629     -0.2778725469
H       4.1036555628      0.5128363000     -1.1369140702
H       4.6947339180      0.8843986309      0.4765781908
14
step 35  E = -11.00202616 Ha  |g|max = 0.000916
C       0.0630397103     -0.3366452689      0.4477936303
C       1.3469003272      0.0407090011     -0.3947318944
C       2.6768345139      0.0115633606      0.4668474554
C       3.8245980646      0.8952139150     -0.1657740990
H       0.0650685983     -1.3916376640      0.6829327509
H      -0.8286723963     -0.1090766219     -0.1198670816
H       0.0373011953      0.2249962249      1.3711782333
H       1.2110709531      1.0270911267     -0.8165645036
H       1.4444151649     -0.6590080152     -1.2145824625
H       3.0252181522     -1.0092151326      0.5494851308
H       2.4699446253      0.3732331197      1.4648131096
H       3.4913279610      1.9170031662     -0.2785251538
H       4.1028189476      0.5111293238     -1.1374202105
H       4.6959806284      0.8833640280      0.4753772766
14
step 36  E = -11.00203458 Ha  |g|max = 0.001066
C       0.0632227744     -0.3374750275      0.4478813461
C       1.3457266799      0.0437187150     -0.3938264796
C       2.6769466216      0.0140061312      0.4695826009
C       3.8256884149      0.8934899542     -0.1667738653
H       0.0691017760     -1.3920693439      0.6823224014
H      -0.8283734871     -0.1152178435     -0.1232005948
H       0.0315160430      0.2249192367      1.3705513554
H       1.2084893658      1.0300596647     -0.8138541780
H       1.4445075372     -0.6547327377     -1.2141292267
H       3.0243044188     -1.0087436031      0.5498425332
H       2.4716222741      0.3754353072      1.4674419748
H       3.4942716773      1.9167003155     -0.2797509220
H       4.1013124717      0.5078717484     -1.1384197320
H       4.6975098781      0.8807580462      0.4732949680
14
step 37  E = -11.00204627 Ha  |g|max = 0.001095
C       0.0635963607     -0.3381096721      0.4473478383
C       1.3459439363      0.0470771321     -0.3915095578
C       2.6765216625      0.0157126142      0.4719097130
C       3.8262256772      0.8915927569     -0.1683479975
H       0.0752109204     -1.3937689679      0.6820783644
H      -0.8275660773     -0.1240717570     -0.1281889441
H       0.0236335245      0.2250769130      1.3697815713
H       1.2044497080      1.0351722223     -0.8099878380
H       1.4446198285     -0.6479568349     -1.2137322675
H       3.0217538874     -1.0064811676      0.5509139884
H       2.4741530940      0.3788525843      1.4716841142
H       3.4986115601      1.9161037218     -0.2815539242
H       4.0991572686      0.5030242609     -1.1399335939
H       4.6995350948      0.8764967575      0.4705007148
14
step 38  E = -11.00205593 Ha  |g|max = 0.001372
C       0.0629561417     -0.3400865764      0.4468146071
C       1.3467294598      0.0515831060     -0.3889489799
C       2.6755361674      0.0178402422      0.4733483685
C       3.8264299033      0.8903600897     -0.1692005501
H       0.0804331860     -1.3948362621      0.6825869916
H      -0.8262377811     -0.1311187151     -0.1321740599
H       0.0178222130      0.2251806080      1.3686506810
H       1.2016946409      1.0387105175     -0.8060132376
H       1.4449861038     -0.6425076321     -1.2141810185
H       3.0189605133     -1.0045809290      0.5526528062
H       2.4764938077      0.3811666103      1.4735356066
H       3.5021843992      1.9152599038     -0.2831719200
H       4.0972137687      0.4991604734     -1.1409440468
H       4.7006439220      0.8725891271      0.4680069330
14
step 39  E = -11.00207426 Ha  |g|max = 0.001794
C       0.0630937592     -0.3437089229      0.4465194112
C       1.3449462566      0.0583616359     -0.3855724961
C       2.6749912263      0.0235908848      0.4764091457
C       3.8273038408      0.8869865836     -0.1710722275
H       0.0906233581     -1.3972843827      0.6848919101
H      -0.8238605581     -0.1443098517     -0.1401985399
H       0.0073326040      0.2244383833      1.3647323303
H       1.1975086989      1.0463080237     -0.7973533485
H       1.4463665670     -0.6303980218     -1.2141678439
H       3.0126970721     -1.0014972819      0.5570948171
H       2.4809395113      0.3852933232      1.4749209917
H       3.5087795026      1.9139642103     -0.2865732713
H       4.0928748916      0.4923337018     -1.1418415094
H       4.7022497154      0.8646422779      0.4631728120
14
step 40  E = -11.00209093 Ha  |g|max = 0.001164
C       0.0633088813     -0.3468067749      0.4451130756
C       1.3429025219      0.0633457549     -0.3822899473
C       2.6742152058      0.0264059171      0.4770360890
C       3.8284270989      0.8847600782     -0.1731999525
H       0.1000946005     -1.4000967152      0.6879927861
H      -0.8216586250     -0.1568627711     -0.1472932889
H      -0.0021716738      0.2236236751      1.3609839382
H       1.1939484437      1.0548324412     -0.7888456259
H       1.4481295897     -0.6184515082     -1.2140410759
H       3.0063729665     -0.9982491725      0.5616156461
H       2.4842394961      0.3905993226      1.4774710245
H       3.5150057423      1.9125651224     -0.2898546721
H       4.0886186421      0.4859425514     -1.1429361862
H       4.7044135560      0.8571126424      0.4592103708
14
step 41  E = -11.00211125 Ha  |g|max = 0.001846
C       0.0622471106     -0.3525505951      0.4431132874
C       1.3423570068      0.0721689532     -0.3788807287
C       2.6710187664      0.0294917437      0.4788906175
C       3.8302313281      0.8817557472     -0.1758934799
H       0.1113132276     -1.4028865726      0.6927967239
H      -0.8195821308     -0.1730969082     -0.1552941547
H      -0.0134694919      0.2227456034      1.3564857380
H       1.1901569685      1.0655462556     -0.7767108247
H       1.4507700755     -0.6043819604     -1.2158337260
H       2.9992362864     -0.9963799783      0.5672803537
H       2.4869745021      0.3989451028      1.4797530764
H       3.5225756314      1.9113061279     -0.2940051653
H       4.0836753168      0.4780419928     -1.1459269719
H       4.7083418480      0.8480150516      0.4551874356
14
step 42  E = -11.00214668 Ha  |g|max = 0.001885
C       0.0621691272     -0.3605474892      0.4408648123
C       1.3397886985      0.0855810772     -0.3746139619
C       2.6683551288      0.0370592477      0.4856824707
C       3.8330570141      0.8739985380     -0.1795977552
H       0.1301111042     -1.4082104415      0.7015825594
H      -0.8179191275     -0.2022510515     -0.1689671756
H      -0.0329163622      0.2204648419      1.3476248656
H       1.1838711535      1.0853855710     -0.7548137877
H       1.4555326554     -0.5792887960     -1.2200230111
H       2.9872346402     -0.9946403478      0.5768100342
H       2.4902254240      0.4143046222      1.4815222017
H       3.5357391639      1.9092062887     -0.3010420398
H       4.0756297769      0.4648980411     -1.1519150948
H       4.7149680488      0.8327604619      0.4478480634
14
step 43  E = -11.00216817 Ha  |g|max = 0.001138
C       0.0624424703     -0.3599167443      0.4401551044
C       1.3397912544      0.0843415476     -0.3740161171
C       2.6700711486      0.0357707416      0.4845598976
C       3.8331825290      0.8741455148     -0.1796417169
H       0.1297592745     -1.4077851346      0.7013500587
H      -0.8181259354     -0.2031265708     -0.1680514312
H      -0.0329292306      0.2205062122      1.3476275282
H       1.1838111975      1.0856650072     -0.7546493528
H       1.4554310028     -0.5785961786     -1.2206354216
H       2.9869747392     -0.9934106198      0.5768480337
H       2.4891146683      0.4151925825      1.4821835663
H       3.5362301239      1.9074571272     -0.3005591284
H       4.0757764729      0.4653793424     -1.1512117550
H       4.7143167305      0.8330977360      0.4470029155
14
step 44  E = -11.00218593 Ha  |g|max = 0.001030
C       0.0627981758     -0.3596364609      0.4404137455
C       1.3410423909      0.0838836187     -0.3743169704
C       2.6709726970      0.0368094307      0.4852611734
C       3.8336729471      0.8726969274     -0.1799239777
H       0.1288242153     -1.4063415295      0.7006956930
H      -0.8192491010     -0.2051271302     -0.1662949936
H      -0.0328367899      0.2205750084      1.3472391877
H       1.1840668182      1.0847240429     -0.7533901239
H       1.4550077290     -0.5770988733     -1.2225150163
H       2.9876259739     -0.9933179319      0.5772108751
H       2.4869998438      0.4162605648      1.4808001794
H       3.5367297690      1.9048940926     -0.2994564809
H       4.0765123640      0.4664406900     -1.1502595575
H       4.7136794126      0.8339581137      0.4454984475
14
step 45  E = -11.00219945 Ha  |g|max = 0.000976
C       0.0633379095     -0.3589626072      0.4399102712
C       1.3418493201      0.0839536102     -0.3746567790
C       2.6699279739      0.0360225942      0.4851972343
C       3.8333729838      0.8716411500     -0.1789434977
H       0.1280093258     -1.4062227984      0.7006422450
H      -0.8207541003     -0.2073382444     -0.1643364299
H      -0.0325165105      0.2212064305      1.3473258688
H       1.1846119075      1.0840524630     -0.7516656715
H       1.4547283882     -0.5754032176     -1.2252363913
H       2.9887438836     -0.9932168542      0.5783395484
H       2.4844259774      0.4181894153      1.4794741758
H       3.5365834821      1.9038107171     -0.2983835791
H       4.0781302549      0.4663350763     -1.1518760888
H       4.7153956497      0.8346528288      0.4451712750
14
step 46  E = -11.00221070 Ha  |g|max = 0.000748
C       0.0634127689     -0.3592729092      0.4400801469
C       1.3411600805      0.0824885304     -0.3761700346
C       2.6694902072      0.0346421696      0.4852691175
C       3.8344575917      0.8703940771     -0.1797295947
H       0.1276277931     -1.4062000729      0.7009379688
H      -0.8223037020     -0.2091733046     -0.1626747617
H      -0.0318685112      0.2219304691      1.3471518784
H       1.1852957452      1.0850947219     -0.7501481459
H       1.4545213958     -0.5731760646     -1.2276850753
H       2.9897084092     -0.9933083323      0.5801620211
H       2.4816240928      0.4203088357      1.4782058483
H       3.5359548119      1.9035785417     -0.2973182940
H       4.0793949402      0.4664447792     -1.1523823440
H       4.7173708226      0.8349691224      0.4452634504
14
step 47  E = -11.00222108 Ha  |g|max = 0.000668
C       0.0622133646     -0.3605667611      0.4404564205
C       1.3400175085      0.0825627363     -0.3770445943
C       2.6699975598      0.0345284939      0.4842172689
C       3.8359859191      0.8705099349     -0.1796794476
H       0.1278615859     -1.4066723762      0.7019748106
H      -0.8235906065     -0.2105372521     -0.1611738218
H      -0.0306292282      0.2225814185      1.3464498005
H       1.1861734121      1.0865062625     -0.7483986370
H       1.4542913969     -0.5716529570     -1.2313307564
H       2.9904267705     -0.9944611694      0.5831250988
H       2.4787992385      0.4222656860      1.4764432470
H       3.5354134229      1.9025754331     -0.2963338009
H       4.0805196571      0.4663999229     -1.1526064414
H       4.7183664446      0.8346811911      0.4448630345
14
step 48  E = -11.00222881 Ha  |g|max = 0.000997
C       0.0624751204     -0.3609568682      0.4401365064
C       1.3404477071      0.0825062099     -0.3779823074
C       2.6703157050      0.0341864066      0.4833100304
C       3.8358127200      0.8702915828     -0.1795048944
H       0.1287151958     -1.4085203358      0.7040545821
H      -0.8252513478     -0.2112410816     -0.1605209640
H      -0.0292123489      0.2227783491      1.3454946289
H       1.1865326810      1.0879423455     -0.7465974399
H       1.4533967208     -0.5696770104     -1.2339592475
H       2.9899158241     -0.9943194932      0.5864853641
H       2.4770490248      0.4234429700      1.4733936609
H       3.5353131097      1.9018935665     -0.2958334254
H       4.0814009175      0.4665891277     -1.1522132207
H       4.7189354163      0.8338047946      0.4446989077
14
step 49  E = -11.00223298 Ha  |g|max = 0.000634
C       0.0630230263     -0.3623997851      0.4395195778
C       1.3407449556      0.0826605939     -0.3786974026
C       2.6698958553      0.0336356548      0.4825883650
C       3.8360811980      0.8696240032     -0.1793879772
H       0.1293717824     -1.4085329734      0.7052082398
H      -0.8256426375     -0.2116563105     -0.1600377946
H      -0.0282848834      0.2228976126      1.3450233769
H       1.1866101185      1.0884885554     -0.7453640149
H       1.4526505842     -0.5682300119     -1.2352625661
H       2.9892787122     -0.9939830336      0.5885249402
H       2.4762442695      0.4243329827      1.4718420956
H       3.5353113914      1.9019718614     -0.2957040918
H       4.0817945340      0.4667955916     -1.1519018277
H       4.7187675393      0.8331158225      0.4446112610
14
step 50  E = -11.00223872 Ha  |g|max = 0.000459
C       0.0640944824     -0.3630210674      0.4389979493
C       1.3399091355      0.0824534298     -0.3796343317
C       2.6687496360      0.0335557222      0.4817135514
C       3.8357881549      0.8692420069     -0.1794150039
H       0.1308743539     -1.4081008203      0.7067664644
H      -0.8242903474     -0.2128924093     -0.1589891885
H      -0.0264873288      0.2219952532      1.3430724828
H       1.1862636975      1.0891112394     -0.7433036945
H       1.4514318781     -0.5657915811     -1.2375041152
H       2.9878395641     -0.9942510956      0.5914167733
H       2.4753084579      0.4263477868      1.4704220610
H       3.5358986523      1.9015938317     -0.2955938247
H       4.0823624645      0.4668757334     -1.1521564243
H       4.7181036449      0.8316025339      0.4451694819
14
step 51  E = -11.00224366 Ha  |g|max = 0.000657
C       0.0655715890     -0.3636165148      0.4390214897
C       1.3397199892      0.0829520232     -0.3801179125
C       2.6682626277      0.0336428083      0.4823635676
C       3.8353457281      0.8681715979     -0.1802370970
H       0.1329851155     -1.4084846860      0.7078616246
H      -0.8233516992     -0.2146043383     -0.1591453274
H      -0.0245955462      0.2220864471      1.3425818875
H       1.1850843803      1.0901426271     -0.7415434667
H       1.4503546728     -0.5640444250     -1.2408451193
H       2.9857709406     -0.9942778356      0.5934024447
H       2.4742824813      0.4288737225      1.4694498203
H       3.5368014558      1.9012531450     -0.2954781844
H       4.0827131061      0.4668482935     -1.1526727083
H       4.7169016047      0.8297776985      0.4463211624
14
step 52  E = -11.00224839 Ha  |g|max = 0.000433
C       0.0663359938     -0.3644441638      0.4391681365
C       1.3403569597      0.0829819960     -0.3813381384
C       2.6676476557      0.0339555104      0.4821856706
C       3.8353732189      0.8672566720     -0.1801144210
H       0.1353633410     -1.4090970299      0.7086957436
H      -0.8223617929     -0.2165384327     -0.1594511836
H      -0.0228025751      0.2226148829      1.3427291651
H       1.1836601093      1.0914452530     -0.7399614850
H       1.4493983315     -0.5618238804     -1.2433638346
H       2.9836472845     -0.9943204129      0.5951262814
H       2.4731974803      0.4316438212      1.4690956982
H       3.5377539559      1.9006866791     -0.2953789318
H       4.0829896097      0.4664693241     -1.1536055008
H       4.7152868737      0.8278903446      0.4471749813
14
step 53  E = -11.00225113 Ha  |g|max = 0.000734
C       0.0670398186     -0.3647986354      0.4394853023
C       1.3395801814      0.0838286403     -0.3821820984
C       2.6669475556      0.0346823268      0.4816081902
C       3.8356440898      0.8667758208     -0.1805860522
H       0.1373316607     -1.4097856382      0.7088481907
H      -0.8218651834     -0.2183038259     -0.1596488639
H      -0.0219379258      0.2230234514      1.3428815506
H       1.1826785430      1.0919093981     -0.7391042639
H       1.4494587456     -0.5599053355     -1.2440036307
H       2.9822900110     -0.9940809355      0.5959422806
H       2.4723992736      0.4333059611      1.4685522058
H       3.5384811701      1.8997479593     -0.2951918174
H       4.0828133005      0.4658794187     -1.1534902266
H       4.7149852051      0.8264419575      0.4478514141
14
step 54  E = -11.00225687 Ha  |g|max = 0.000746
C       0.0679956453     -0.3659331334      0.4400291830
C       1.3380781407      0.0858013983     -0.3817359283
C       2.6651285059      0.0362307513      0.4806295781
C       3.8364325323      0.8648617915     -0.1802365095
H       0.1420896693     -1.4107362450      0.7088367543
H      -0.8207233755     -0.2226971219     -0.1594082893
H      -0.0204899161      0.2234863979      1.3427697085
H       1.1800800544      1.0942454063     -0.7381381769
H       1.4501417439     -0.5560785022     -1.2456074830
H       2.9790515712     -0.9924407675      0.5972040048
H       2.4706635128      0.4365871187      1.4662372400
H       3.5400456871      1.8984468934     -0.2949651746
H       4.0825081443      0.4638535373     -1.1535741356
H       4.7148445303      0.8230930387      0.4489214099
14
step 55  E = -11.00226058 Ha  |g|max = 0.000751
C       0.0683634308     -0.3668543426      0.4406385500
C       1.3378617179      0.0872808724     -0.3825677951
C       2.6644311382      0.0370527780      0.4806926915
C       3.8364021731      0.8639036309     -0.1801666898
H       0.1454328970     -1.4110823241      0.7089782869
H      -0.8204351902     -0.2257659057     -0.1589278808
H      -0.0200506125      0.2231395584      1.3423115564
H       1.1780777954      1.0962241008     -0.7376037385
H       1.4504655301     -0.5533726531     -1.2461447817
H       2.9766820744     -0.9911459320      0.5978220598
H       2.4694552398      0.4388338235      1.4648265447
H       3.5414537890      1.8976426555     -0.2948777456
H       4.0824900671      0.4621841367     -1.1535486641
H       4.7152163958      0.8206801650      0.4495297875
14
step 56  E = -11.00227561 Ha  |g|max = 0.000671
C       0.0724082965     -0.3698351092      0.4388379675
C       1.3368833104      0.0956871466     -0.3851635941
C       2.6614454786      0.0420934645      0.4800889896
C       3.8384459017      0.8600199850     -0.1802162123
H       0.1596374059     -1.4130388246      0.7111447287
H      -0.8217534791     -0.2388299920     -0.1556480980
H      -0.0207720779      0.2200338545      1.3410424450
H       1.1695245398      1.1048324683     -0.7354128905
H       1.4513632290     -0.5436183776     -1.2493036208
H       2.9671992527     -0.9882707344      0.6002737755
H       2.4639772022      0.4489798924      1.4623730393
H       3.5485226545      1.8954836435     -0.2949484586
H       4.0826749693      0.4547177791     -1.1520998279
H       4.7162897622      0.8104653674      0.4499939380
14
step 57  E = -11.00228199 Ha  |g|max = 0.000761
C       0.0732360492     -0.3712935000      0.4389947516
C       1.3351973531      0.0984612598     -0.3857714011
C       2.6592983762      0.0446840389      0.4805673441
C       3.8402545891      0.8589894375     -0.1801132627
H       0.1662466758     -1.4132309148      0.7119011101
H      -0.8222700223     -0.2448127337     -0.1542468642
H      -0.0215451874      0.2178369381      1.3398841851
H       1.1664231007      1.1089690376     -0.7345899545
H       1.4516703242     -0.5392221498     -1.2516710698
H       2.9628705155     -0.9869719905      0.6016106069
H       2.4620398057      0.4531455024      1.4617465840
H       3.5527037529      1.8945541982     -0.2953829150
H       4.0828539413      0.4514032114     -1.1517242852
H       4.7168671719      0.8062082284      0.4497573520
14
step 58  E = -11.00229122 Ha  |g|max = 0.000814
C       0.0730770662     -0.3740283015      0.4385521390
C       1.3321744834      0.1026199596     -0.3872138491
C       2.6569137485      0.0480992826      0.4805669130
C       3.8410978933      0.8564293898     -0.1804293397
H       0.1759189183     -1.4136817952      0.7129223334
H      -0.8230267925     -0.2536728459     -0.1525127329
H      -0.0233203543      0.2150000160      1.3393367163
H       1.1629717496      1.1137129245     -0.7329799800
H       1.4516804271     -0.5322771611     -1.2552948104
H       2.9562589784     -0.9839499607      0.6039683158
H       2.4597390660      0.4588740895      1.4620184340
H       3.5600807664      1.8940307234     -0.2966498912
H       4.0831709951      0.4470046614     -1.1512092898
H       4.7191095002      0.8005595811      0.4498872228
14
step 59  E = -11.00230156 Ha  |g|max = 0.000698
C       0.0740652762     -0.3763048017      0.4380122171
C       1.3300964245      0.1069420301     -0.3885554441
C       2.6527179986      0.0525813394      0.4806974399
C       3.8430262604      0.8534809677     -0.1800930186
H       0.1867747653     -1.4157754984      0.7141465865
H      -0.8255365586     -0.2641870544     -0.1518178754
H      -0.0260563829      0.2121792181      1.3396335624
H       1.1593994067      1.1185261651     -0.7307678460
H       1.4509472412     -0.5234734326     -1.2590693757
H       2.9486976518     -0.9801610294      0.6071435624
H       2.4577337515      0.4648182654      1.4618203226
H       3.5695489707      1.8935728343     -0.2986732466
H       4.0834064724      0.4421487615     -1.1509337978
H       4.7210251680      0.7943727985      0.4494190946
14
step 60  E = -11.00230594 Ha  |g|max = 0.000736
C       0.0741020204     -0.3777010462      0.4381290032
C       1.3297627457      0.1091373253     -0.3882562421
C       2.6523702958      0.0542712487      0.4810195601
C       3.8438191096      0.8533085899     -0.1804810225
H       0.1902814747     -1.4165440041      0.7141727018
H      -0.8263422795     -0.2687906629     -0.1518974603
H      -0.0275461900      0.2111822515      1.3396062346
H       1.1579879348      1.1204498321     -0.7296284886
H       1.4501435852     -0.5199726119     -1.2604484191
H       2.9458020078     -0.9784376936      0.6087359722
H       2.4569977823      0.4669722473      1.4611806024
H       3.5740264695      1.8926133574     -0.2997434698
H       4.0831977417      0.4404064585     -1.1506166233
H       4.7212437477      0.7918252714      0.4491898327
14
step 61  E = -11.00231048 Ha  |g|max = 0.000629
C       0.0739520828     -0.3787624215      0.4380585676
C       1.3292016405      0.1108150293     -0.3875772729
C       2.6527464626      0.0564601906      0.4807134870
C       3.8449333102      0.8518670739     -0.1808310911
H       0.1931713891     -1.4175467969      0.7139559353
H      -0.8264288021     -0.2738956275     -0.1520346752
H      -0.0295132173      0.2100071175      1.3392336802
H       1.1564381350      1.1229121670     -0.7281166585
H       1.4489853021     -0.5160943279     -1.2611608531
H       2.9433790177     -0.9770649216      0.6106389312
H       2.4562681289      0.4694429004      1.4606829405
H       3.5785898032      1.8927280992     -0.3012187656
H       4.0828112197      0.4386867020     -1.1504120975
H       4.7213119731      0.7891653790      0.4490300534
14
step 62  E = -11.00232024 Ha  |g|max = 0.000537
C       0.0748960882     -0.3816786043      0.4379869828
C       1.3270474994      0.1158835341     -0.3863797953
C       2.6511706050      0.0594994589      0.4806823626
C       3.8476620707      0.8504169480     -0.1821445949
H       0.1981930938     -1.4196374823      0.7132069832
H      -0.8257175951     -0.2855360813     -0.1532529496
H      -0.0351568046      0.2070758309      1.3379582732
H       1.1527818384      1.1281477085     -0.7230941324
H       1.4460802893     -0.5073792249     -1.2615223831
H       2.9395801811     -0.9741003062      0.6150993391
H       2.4553176248      0.4760915919      1.4595582680
H       3.5887750508      1.8933980160     -0.3049041812
H       4.0823476362      0.4338832038     -1.1518159139
H       4.7228688677      0.7826559703      0.4495839230
14
step 63  E = -11.00232530 Ha  |g|max = 0.000751
C       0.0743061608     -0.3833327251      0.4374874492
C       1.3262567777      0.1181274688     -0.3852772115
C       2.6501876520      0.0620551309      0.4812245205
C       3.8482802373      0.8494184819     -0.1830368278
H       0.2009651076     -1.4211859221      0.7133145178
H      -0.8248622049     -0.2909964252     -0.1545848915
H      -0.0386745956      0.2054504121      1.3376024415
H       1.1504068407      1.1317875098     -0.7196820434
H       1.4448425127     -0.5035107954     -1.2622987315
H       2.9383458363     -0.9725689496      0.6171106826
H       2.4553501716      0.4800495903      1.4586914927
H       3.5937248481      1.8930918656     -0.3066039934
H       4.0825860532      0.4312808429     -1.1525199310
H       4.7241310484      0.7790540785      0.4495347073
14
step 64  E = -11.00234294 Ha  |g|max = 0.001098
C       0.0733162837     -0.3899647092      0.4377672851
C       1.3222598028      0.1262953052     -0.3827566638
C       2.6486539901      0.0688371641      0.4823641041
C       3.8523193164      0.8443472914     -0.1853007557
H       0.2108295809     -1.4262938751      0.7143980294
H      -0.8233687768     -0.3083607195     -0.1620503921
H      -0.0520717311      0.1989466426      1.3359323412
H       1.1415597911      1.1439427825     -0.7058108212
H       1.4414392860     -0.4902191041     -1.2650106107
H       2.9344272342     -0.9645770949      0.6233464582
H       2.4560361925      0.4956586234      1.4573381164
H       3.6097314676      1.8913790977     -0.3121186045
H       4.0838119605      0.4223209464     -1.1540206884
H       4.7269020480      0.7664082130      0.4468843833
14
step 65  E = -11.00235480 Ha  |g|max = 0.001085
C       0.0727355531     -0.3941343776      0.4361275491
C       1.3197201652      0.1312687332     -0.3809466509
C       2.6469330285      0.0748109449      0.4824242251
C       3.8556928805      0.8416688098     -0.1880173089
H       0.2179026559     -1.4294630245      0.7156052559
H      -0.8219189988     -0.3200162936     -0.1671946577
H      -0.0620256157      0.1939160589      1.3346925071
H       1.1351582807      1.1501731795     -0.6951913355
H       1.4394850794     -0.4789340842     -1.2656362938
H       2.9314683760     -0.9591991876      0.6279748091
H       2.4571326964      0.5066546146      1.4564166708
H       3.6201633530      1.8885335843     -0.3153833555
H       4.0845189854      0.4159451021     -1.1542846419
H       4.7288800062      0.7574965038      0.4443754085
14
step 66  E = -11.00236801 Ha  |g|max = 0.000828
C       0.0722297764     -0.3988938062      0.4350749573
C       1.3174579658      0.1368850040     -0.3763305548
C       2.6463143581      0.0813506455      0.4828697206
C       3.8580602296      0.8373998683     -0.1899082321
H       0.2254929973     -1.4313293488      0.7166740144
H      -0.8202893633     -0.3323944393     -0.1728865426
H      -0.0730558730      0.1873731103      1.3316348836
H       1.1276640609      1.1553747056     -0.6836091645
H       1.4383335572     -0.4653975198     -1.2670968002
H       2.9271229570     -0.9523868887      0.6333466699
H       2.4590502833      0.5183154934      1.4544141928
H       3.6302882295      1.8862787816     -0.3188628113
H       4.0853282990      0.4082302354     -1.1558611196
H       4.7318489682      0.7479147223      0.4415029679
14
step 67  E = -11.00237314 Ha  |g|max = 0.000910
C       0.0715976288     -0.4008507693      0.4344645271
C       1.3170316085      0.1384388618     -0.3747606000
C       2.6460069283      0.0830149229      0.4841294429
C       3.8597715593      0.8360038455     -0.1914189504
H       0.2284683574     -1.4323059176      0.7170487404
H      -0.8193046094     -0.3374167629     -0.1751171313
H      -0.0776069595      0.1849721327      1.3304567680
H       1.1242140667      1.1580835626     -0.6792290820
H       1.4384086182     -0.4591767180     -1.2675189700
H       2.9248227520     -0.9497247797      0.6358924994
H       2.4602110723      0.5230622232      1.4536486846
H       3.6338546324      1.8854109122     -0.3202663100
H       4.0852330307      0.4049961347     -1.1566682815
H       4.7331377601      0.7442129153      0.4403008441
14
step 68  E = -11.00238733 Ha  |g|max = 0.000674
C       0.0712257071     -0.4066511473      0.4327138376
C       1.3152687221      0.1454963252     -0.3705320498
C       2.6465663784      0.0884548259      0.4862209759
C       3.8637984882      0.8319881767     -0.1950479210
H       0.2356880889     -1.4364571316      0.7178744016
H      -0.8170410484     -0.3511914099     -0.1820407285
H      -0.0900819764      0.1799469857      1.3278807047
H       1.1145668686      1.1654363966     -0.6674676557
H       1.4410224835     -0.4419841889     -1.2700018480
H       2.9178984698     -0.9468125483      0.6452421455
H       2.4642383737      0.5366668891      1.4542607506
H       3.6420433707      1.8827397949     -0.3243728242
H       4.0835626793      0.3958709213     -1.1602737226
H       4.7370898402      0.7352166739      0.4365061152
14
step 69  E = -11.00239452 Ha  |g|max = 0.001376
C       0.0711911901     -0.4090323082      0.4329445956
C       1.3147321628      0.1495127309     -0.3688743309
C       2.6463185841      0.0913289392      0.4883503709
C       3.8647990313      0.8288048418     -0.1967696110
H       0.2392634669     -1.4389137533      0.7180908150
H      -0.8156048131     -0.3589185374     -0.1859635661
H      -0.0963137035      0.1767386847      1.3253252820
H       1.1097767323      1.1701599859     -0.6608388926
H       1.4428940784     -0.4327663063     -1.2711445160
H       2.9138686800     -0.9447965199      0.6507391435
H       2.4670334624      0.5434441965      1.4540767814
H       3.6464466599      1.8805234991     -0.3269110509
H       4.0821300248      0.3916109946     -1.1617790039
H       4.7393108894      0.7310241157      0.4337161642
14
step 70  E = -11.00240859 Ha  |g|max = 0.000835
C       0.0715747082     -0.4150792773      0.4300389149
C       1.3134614499      0.1573903155     -0.3644896199
C       2.6447715950      0.0956247315      0.4917463499
C       3.8661090663      0.8225286804     -0.1989562562
H       0.2457817843     -1.4427480541      0.7182272717
H      -0.8114756596     -0.3740914016     -0.1927490586
H      -0.1077958232      0.1714231035      1.3213662290
H       1.1016977103      1.1802120913     -0.6475818725
H       1.4468172276     -0.4155350598     -1.2731408083
H       2.9057046716     -0.9396277665      0.6617851514
H       2.4726965427      0.5562923899      1.4543958506
H       3.6548651592      1.8746425849     -0.3322297491
H       4.0785459615      0.3839479599     -1.1643337927
H       4.7430920520      0.7237402660      0.4268835711
14
step 71  E = -11.00241568 Ha  |g|max = 0.000726
C       0.0724204134     -0.4178057500      0.4284331587
C       1.3119681643      0.1614367871     -0.3630369436
C       2.6437943834      0.0992063711      0.4934054807
C       3.8668857988      0.8192845871     -0.2007741591
H       0.2496482968     -1.4444240375      0.7180742563
H      -0.8094829352     -0.3823318937     -0.1969849031
H      -0.1131328957      0.1680769028      1.3185371006
H       1.0990260207      1.1851557290     -0.6394512773
H       1.4486235667     -0.4060284705     -1.2730042485
H       2.9014209874     -0.9375312779      0.6679944287
H       2.4751188274      0.5631083513      1.4555537568
H       3.6586737961      1.8711802312     -0.3352737897
H       4.0757944643      0.3796081557     -1.1654352593
H       4.7450875575      0.7197848776      0.4229245802
14
step 72  E = -11.00243184 Ha  |g|max = 0.001155
C       0.0719243735     -0.4238677649      0.4240077151
C       1.3110795579      0.1713950170     -0.3566513737
C       2.6416227613      0.1052003385      0.4989981136
C       3.8684950462      0.8128218344     -0.2047252125
H       0.2602149522     -1.4476975262      0.7171707464
H      -0.8046599115     -0.4010845963     -0.2073052146
H      -0.1235453079      0.1600139401      1.3113134735
H       1.0955400465      1.1969600336     -0.6199023971
H       1.4519109664     -0.3856050123     -1.2737134768
H       2.8911225494     -0.9304965143      0.6816273145
H       2.4787195903      0.5785469504      1.4588043081
H       3.6655333966      1.8648068827     -0.3429242399
H       4.0681479419      0.3676633742     -1.1696109179
H       4.7497404830      0.7100636064      0.4138733428
14
step 73  E = -11.00244539 Ha  |g|max = 0.000574
C       0.0727670638     -0.4298353848      0.4199565636
C       1.3105022788      0.1785429772     -0.3514871676
C       2.6409668503      0.1117547499      0.5052997782
C       3.8688748007      0.8063856369     -0.2083104102
H       0.2699957682     -1.4502967336      0.7160092271
H      -0.8012689526     -0.4170977983     -0.2170428239
H      -0.1329953179      0.1536410893      1.3059977767
H       1.0928786398      1.2081755299     -0.6030000371
H       1.4544366946     -0.3674495553     -1.2739755239
H       2.8825406943     -0.9250404518      0.6934725790
H       2.4812745155      0.5915943813      1.4608562792
H       3.6710704962      1.8601811673     -0.3498038499
H       4.0609917782      0.3568147429     -1.1731141209
H       4.7538111358      0.7013502124      0.4061039109
14
step 74  E = -11.00245565 Ha  |g|max = 0.000940
C       0.0737791796     -0.4330125406      0.4175942932
C       1.3110503071      0.1847276873     -0.3485980698
C       2.6414697110      0.1150586530      0.5088947282
C       3.8688252579      0.8032450514     -0.2106754249
H       0.2782431354     -1.4531397823      0.7146273133
H      -0.7987051485     -0.4273152597     -0.2240713558
H      -0.1408190678      0.1497563177      1.3033602161
H       1.0915473099      1.2148754931     -0.5914684747
H       1.4560773371     -0.3544479669     -1.2743483532
H       2.8782334970     -0.9221627513      0.7020274268
H       2.4816453980      0.6011839135      1.4626927170
H       3.6747036228      1.8566772654     -0.3547812334
H       4.0545207919      0.3483591970     -1.1743441822
H       4.7552751144      0.6949152858      0.4000525809
14
step 75  E = -11.00246658 Ha  |g|max = 0.001138
C       0.0742718130     -0.4361112359      0.4156865306
C       1.3118473278      0.1900866855     -0.3441603248
C       2.6403851395      0.1184611722      0.5133678369
C       3.8688730308      0.7991499851     -0.2132690695
H       0.2874290768     -1.4549172980      0.7123214261
H      -0.7939805533     -0.4372567729     -0.2302937090
H      -0.1495884476      0.1450239968      1.3000248061
H       1.0902173074      1.2225609953     -0.5801813155
H       1.4579513833     -0.3407469780     -1.2756018143
H       2.8752843268     -0.9193137900      0.7110917152
H       2.4816822803      0.6105779431      1.4633073478
H       3.6782435224      1.8537186571     -0.3602345778
H       4.0467003156      0.3392430578     -1.1747541502
H       4.7565299231      0.6882441453      0.3936574797
14
step 76  E = -11.00247596 Ha  |g|max = 0.000631
C       0.0758089122     -0.4389961475      0.4143577474
C       1.3108739615      0.1948221477     -0.3411197707
C       2.6401038763      0.1205795117      0.5169752963
C       3.8672854348      0.7959453639     -0.2145718046
H       0.2952433258     -1.4553450724      0.7099684639
H      -0.7892382108     -0.4454005486     -0.2354384644
H      -0.1574521336      0.1404352384      1.2969724461
H       1.0893180225      1.2286247135     -0.5705665403
H       1.4596734441     -0.3286320960     -1.2762968922
H       2.8733827143     -0.9159732771      0.7189668295
H       2.4816211766      0.6184791246      1.4638359163
H       3.6814015859      1.8507041894     -0.3650364534
H       4.0396137704      0.3309204612     -1.1756444350
H       4.7582105657      0.6825569546      0.3885598426
14
step 77  E = -11.00247894 Ha  |g|max = 0.000373
C       0.0764732849     -0.4392464283      0.4134671206
C       1.3107330279      0.1964926791     -0.3406835942
C       2.6391151999      0.1216747028      0.5175056549
C       3.8671643186      0.7944644020     -0.2149595832
H       0.2976964676     -1.4556314035      0.7094589308
H      -0.7874215739     -0.4477455426     -0.2370199829
H      -0.1599441440      0.1385949151      1.2962308912
H       1.0890305042      1.2301183938     -0.5675538361
H       1.4600966775     -0.3247127460     -1.2760727332
H       2.8733615541     -0.9147034165      0.7216033215
H       2.4816885610      0.6206039768      1.4642494589
H       3.6822887899      1.8493748142     -0.3665443655
H       4.0369600783      0.3284172898     -1.1757480383
H       4.7586036998      0.6810189267      0.3870289369
14
step 78  E = -11.00248038 Ha  |g|max = 0.000337
C       0.0769721116     -0.4397186918      0.4131722469
C       1.3108821143      0.1974528744     -0.3402002380
C       2.6388411726      0.1222855174      0.5180407456
C       3.8670517762      0.7937704980     -0.2153013149
H       0.2987613374     -1.4553804091      0.7092751112
H      -0.7866731203     -0.4485983826     -0.2381680297
H      -0.1609722017      0.1374254526      1.2961283250
H       1.0886659297      1.2311803030     -0.5664111132
H       1.4602224272     -0.3232132376     -1.2763537357
H       2.8735847626     -0.9133910545      0.7228073926
H       2.4817399450      0.6211534639      1.4644519720
H       3.6826519592      1.8481019881     -0.3672433464
H       4.0353654969      0.3272269143     -1.1757957822
H       4.7587527351      0.6804253273      0.3865599482
14
step 79  E = -11.00248105 Ha  |g|max = 0.000177
C       0.0768948260     -0.4396906027      0.4129792512
C       1.3109324570      0.1978014988     -0.3401319293
C       2.6390847881      0.1227571048      0.5182727328
C       3.8670114317      0.7932509374     -0.2152015192
H       0.2993051676     -1.4554587552      0.7092572435
H      -0.7861990842     -0.4489065398     -0.2387687651
H      -0.1613228985      0.1367252720      1.2961203694
H       1.0883906449      1.2318308776     -0.5659921422
H       1.4602422363     -0.3225436376     -1.2764363573
H       2.8737591988     -0.9127625644      0.7233554526
H       2.4817402922      0.6213797243      1.4647636167
H       3.6827316405      1.8476176165     -0.3676454924
H       4.0345421161      0.3265469825     -1.1759762917
H       4.7587336293      0.6801726493      0.3863660122
14
step 80  E = -11.00248142 Ha  |g|max = 0.000153
C       0.0769077451     -0.4398223406      0.4128338257
C       1.3108958153      0.1982513964     -0.3401579421
C       2.6390944856      0.1230081656      0.5185631648
C       3.8672127657      0.7931780393     -0.2154359235
H       0.2995495324     -1.4555522435      0.7091696539
H      -0.7859706007     -0.4488990990     -0.2393178619
H      -0.1613582299      0.1363065614      1.2963263956
H       1.0881611671      1.2320755621     -0.5659383543
H       1.4602076914     -0.3222440503     -1.2763972690
H       2.8739616737     -0.9126200218      0.7236146324
H       2.4817457081      0.6215911260      1.4653392350
H       3.6826503298      1.8475007298     -0.3679760678
H       4.0339974178      0.3259681784     -1.1760559773
H       4.7587909444      0.6799785596      0.3863946697
14
step 81  E = -11.00248160 Ha  |g|max = 0.000132
C       0.0769979159     -0.4398183345      0.4127885579
C       1.3109294581      0.1982656103     -0.3399374564
C       2.6390574746      0.1231872148      0.5187810466
C       3.8671342744      0.7932089205     -0.2154395454
H       0.2996322166     -1.4556209159      0.7089890909
H      -0.7858501554     -0.4488148236     -0.2396236045
H      -0.1612942673      0.1360217882      1.2964010946
H       1.0879750817      1.2322963811     -0.5660451939
H       1.4601956409     -0.3220883078     -1.2763187636
H       2.8740370951     -0.9125442986      0.7236854139
H       2.4818089913      0.6216788709      1.4656439404
H       3.6826125515      1.8475166114     -0.3682463157
H       4.0337395265      0.3255561992     -1.1760965346
H       4.7588706418      0.6798756474      0.3863804510
14
step 82  E = -11.00248191 Ha  |g|max = 0.000140
C       0.0769766746     -0.4399352012      0.4126883757
C       1.3109998000      0.1986118776     -0.3396066512
C       2.6390799098      0.1233729749      0.5193010029
C       3.8669032818      0.7931454192     -0.2153963406
H       0.2996668840     -1.4557389567      0.7083954931
H      -0.7854572440     -0.4485151530     -0.2399666654
H      -0.1610997463      0.1355023313      1.2965180947
H       1.0876906067      1.2322824853     -0.5662596822
H       1.4602405100     -0.3218431931     -1.2759599875
H       2.8740540415     -0.9122320451      0.7236922379
H       2.4820208158      0.6217791574      1.4661125684
H       3.6826021624      1.8476404804     -0.3688715297
H       4.0333005245      0.3248652803     -1.1758193169
H       4.7588682251      0.6797851063      0.3861345822
14
step 83  E = -11.00248225 Ha  |g|max = 0.000109
C       0.0771854300     -0.4399314635      0.4125561738
C       1.3110296648      0.1988188670     -0.3392778818
C       2.6389767640      0.1238113378      0.5196122165
C       3.8667499658      0.7932740828     -0.2154247892
H       0.2996548030     -1.4560498046      0.7075469967
H      -0.7851415962     -0.4480741605     -0.2403219562
H      -0.1609409232      0.1349325125      1.2967344655
H       1.0874082961      1.2322488804     -0.5664376914
H       1.4604258866     -0.3215956412     -1.2753631429
H       2.8740282442     -0.9120440052      0.7237411654
H       2.4823114239      0.6219084463      1.4667508921
H       3.6826692252      1.8474877477     -0.3696137271
H       4.0327614711      0.3241272671     -1.1752469681
H       4.7587277905      0.6798064969      0.3857064280
14
step 84  E = -11.00248259 Ha  |g|max = 0.000255
C       0.0772303551     -0.4401149103      0.4125787343
C       1.3110714375      0.1991155292     -0.3389795699
C       2.6390720557      0.1241830969      0.5199299069
C       3.8664066182      0.7932575803     -0.2153927666
H       0.2995496954     -1.4565736541      0.7062823256
H      -0.7850368404     -0.4473536883     -0.2404771018
H      -0.1609404748      0.1343593945      1.2971533230
H       1.0872081827      1.2324331041     -0.5663601852
H       1.4610900676     -0.3218135152     -1.2749501892
H       2.8737802978     -0.9115973696      0.7237952851
H       2.4826398978      0.6220347600      1.4673315331
H       3.6828172338      1.8473303100     -0.3705266639
H       4.0322009569      0.3232874594     -1.1748311899
H       4.7587569625      0.6801724666      0.3854087397
14
step 85  E = -11.00248275 Ha  |g|max = 0.000079
C       0.0771753909     -0.4400351187      0.4125579221
C       1.3111071270      0.1990277513     -0.3390382893
C       2.6389269701      0.1242300002      0.5200275254
C       3.8665903056      0.7932379555     -0.2154438480
H       0.2995332086     -1.4566183703      0.7062622263
H      -0.7850633819     -0.4473219852     -0.2404194819
H      -0.1609408317      0.1342940283      1.2971498241
H       1.0872278089      1.2324634755     -0.5663272017
H       1.4611264030     -0.3218075582     -1.2749002860
H       2.8737854036     -0.9116517546      0.7238149161
H       2.4826406210      0.6220291995      1.4672728135
H       3.6827870297      1.8473698920     -0.3705431185
H       4.0322066689      0.3232787403     -1.1748815054
H       4.7587437222      0.6802243079      0.3854306846
