14
butane, realistic distortion: 0.13 A skeleton noise + 5% stretch + 45 deg twist (seed 3)
C       0.1726001661     -0.3447204757      0.4954346264
C       1.1716563358     -0.0713284296     -0.4777185663
C       2.3210538922     -0.0426352307      0.3286040764
C       4.1131363559      1.0655260541     -0.1339482687
H       0.1884583050     -1.4058341644      0.7442041163
H      -0.8062043652     -0.0798440176      0.0955819642
H       0.3693731679      0.2418531571      1.3928262683
H       1.0019743820      0.8757747751     -0.9898743572
H       1.2239242359     -0.8436861803     -1.2450721820
H       2.6310011457     -1.0806880779      0.4489327367
H       1.9940089166      0.3078233016      1.3075424815
H       3.8744673410      2.1262184622     -0.2118502381
H       4.5228900683      0.7147649561     -1.0811380846
H       4.8475064986      0.9154964335      0.6574376084
