14
butane optimised (CG)  E = -11.00248275 Ha  |g|max = 0.000079
C       0.0771753909     -0.4400351187      0.4125579221
C       1.3111071270      0.1990277513     -0.3390382893
C       2.6389269701      0.1242300002      0.5200275254
C       3.8665903056      0.7932379555     -0.2154438480
H       0.2995332086     -1.4566183703      0.7062622263
H      -0.7850633819     -0.4473219852     -0.2404194819
H      -0.1609408317      0.1342940283      1.2971498241
H       1.0872278089      1.2324634755     -0.5663272017
H       1.4611264030     -0.3218075582     -1.2749002860
H       2.8737854036     -0.9116517546      0.7238149161
H       2.4826406210      0.6220291995      1.4672728135
H       3.6827870297      1.8473698920     -0.3705431185
H       4.0322066689      0.3232787403     -1.1748815054
H       4.7587437222      0.6802243079      0.3854306846
