18
cyclohexane, realistic distortion: 0.13 A skeleton noise + +5% stretch (seed 4)
C       1.4496151559     -0.0227132480      0.4560721502
C       0.8528632104      1.1154027029     -0.2404644556
C      -0.8482242892      1.3481064492      0.0307236193
C      -1.5029176618      0.0305995194     -0.0349566472
C      -0.7260101507     -1.2624132852      0.0456828622
C       1.0600287891     -1.5778182737     -0.0965537900
H       1.1658653318      0.0407338455      1.5065770305
H       2.5331207609      0.0873855778      0.4114195751
H       1.0192969505      0.9924708463     -1.3106455472
H       1.3788042971      2.0209776505      0.0618929281
H      -1.2656998681      2.0191655569     -0.7199386316
H      -1.0195751668      1.8109915254      1.0025653158
H      -2.0582927508      0.0037724386     -0.9724740167
H      -2.2365008515      0.0054193263      0.7708483302
H      -1.1755531123     -1.8973971967     -0.7177348202
H      -1.0000602353     -1.6840289071      1.0127592907
H       1.4254272485     -2.3846579933      0.5387364058
H       1.3987678148     -1.7920092521     -1.1101997328
