18
step 0  E = -15.24190891 Ha
C       1.4496151559     -0.0227132480      0.4560721502
C       0.8528632104      1.1154027029     -0.2404644556
C      -0.8482242892      1.3481064492      0.0307236193
C      -1.5029176618      0.0305995194     -0.0349566472
C      -0.7260101507     -1.2624132852      0.0456828622
C       1.0600287891     -1.5778182737     -0.0965537900
H       1.1658653318      0.0407338455      1.5065770305
H       2.5331207609      0.0873855778      0.4114195751
H       1.0192969505      0.9924708463     -1.3106455472
H       1.3788042971      2.0209776505      0.0618929281
H      -1.2656998681      2.0191655569     -0.7199386316
H      -1.0195751668      1.8109915254      1.0025653158
H      -2.0582927508      0.0037724386     -0.9724740167
H      -2.2365008515      0.0054193263      0.7708483302
H      -1.1755531123     -1.8973971967     -0.7177348202
H      -1.0000602353     -1.6840289071      1.0127592907
H       1.4254272485     -2.3846579933      0.5387364058
H       1.3987678148     -1.7920092521     -1.1101997328
18
step 1  E = -15.29176097 Ha  |g|max = 0.037603
C       1.4816619634     -0.0976639007      0.4836794216
C       0.7926795953      1.1715443495     -0.2720532743
C      -0.7763147002      1.3894633450      0.0280565289
C      -1.5461508524      0.0203444355     -0.0444285699
C      -0.6708477217     -1.3283456598      0.0435187428
C       1.0094142233     -1.5203981821     -0.0825052424
H       1.1680812118      0.0356309397      1.5044849901
H       2.5319158366      0.0871480707      0.4125059108
H       1.0151503480      0.9960239745     -1.3087762648
H       1.3758578153      2.0193485812      0.0614367341
H      -1.2609722864      2.0171081044     -0.7186362348
H      -1.0149501156      1.8097737079      0.9997750028
H      -2.0595863127      0.0021973534     -0.9701743650
H      -2.2372199291      0.0023750614      0.7683966098
H      -1.1734764130     -1.8996252181     -0.7142356094
H      -0.9956752323     -1.6873907076      1.0095382013
H       1.4185064256     -2.3776514126      0.5410037326
H       1.3928816088     -1.7858955636     -1.1072764488
18
step 2  E = -15.30324518 Ha  |g|max = 0.033334
C       1.4635571388     -0.0897387580      0.4699789906
C       0.7871304929      1.1627029427     -0.2553574450
C      -0.7461481525      1.3922881836      0.0152492703
C      -1.5016077705      0.0153091892     -0.0439957763
C      -0.6349350339     -1.3645823710      0.0383813282
C       0.9561314334     -1.4949161580     -0.0686894759
H       1.1740380530      0.0186359639      1.5138461486
H       2.5476137720      0.0799339641      0.4134896044
H       1.0006815339      1.0079536892     -1.3201545979
H       1.3695297415      2.0247228529      0.0581545099
H      -1.2444008290      2.0202459403     -0.7154464805
H      -0.9947488814      1.8137956324      0.9965827285
H      -2.0785842543     -0.0024085688     -0.9891430214
H      -2.2517621020     -0.0042796068      0.7756785909
H      -1.1657323892     -1.9241031178     -0.7160546351
H      -0.9816216933     -1.7068483090      1.0091071013
H       1.3856932062     -2.3370501251      0.5302540361
H       1.3661211825     -1.7576740738     -1.0775710154
18
step 3  E = -15.31366293 Ha  |g|max = 0.036159
C       1.4586117629     -0.0584473263      0.4752536959
C       0.8229788461      1.1571167847     -0.2630018762
C      -0.7459724606      1.3844455084      0.0214208923
C      -1.4775984606     -0.0080131690     -0.0547797901
C      -0.6609719772     -1.3821645944      0.0377301796
C       0.9381734989     -1.4796797434     -0.0678193875
H       1.1858802991     -0.0069202674      1.5181647829
H       2.5430938761      0.0605736676      0.4117066902
H       0.9740142732      1.0286595274     -1.3181025122
H       1.3582301231      2.0296519485      0.0535551312
H      -1.2149986716      2.0276471531     -0.7163251369
H      -0.9568892088      1.8169351744      0.9825169902
H      -2.0791064860     -0.0102851641     -0.9826326906
H      -2.2407397191     -0.0141229109      0.7607157993
H      -1.1466662176     -1.9656221657     -0.7179706380
H      -0.9548426727     -1.7408299974      1.0048093000
H       1.3312676150     -2.2752897633      0.5218907218
H       1.3164910016     -1.7096674117     -1.0328222968
18
step 4  E = -15.32239566 Ha  |g|max = 0.016362
C       1.4704533765     -0.0615814446      0.4873238029
C       0.8228901208      1.1769139850     -0.2706765770
C      -0.7254778586      1.3591306577      0.0143088442
C      -1.4950461911     -0.0242250373     -0.0630922569
C      -0.6883957829     -1.3883323310      0.0339035850
C       0.9080505429     -1.4179193816     -0.0526869463
H       1.1973365629     -0.0274069285      1.5255383823
H       2.5305200296      0.0365938597      0.4091629705
H       0.9513959407      1.0480071607     -1.3251892374
H       1.3549031655      2.0448538931      0.0498157018
H      -1.1808492517      2.0337650096     -0.7185412066
H      -0.9166070895      1.8225912042      0.9791519479
H      -2.0645914427     -0.0210586836     -0.9639613249
H      -2.2104622508     -0.0270572209      0.7310624456
H      -1.1281586850     -2.0182616151     -0.7235780192
H      -0.9305250593     -1.7845485853      1.0078445774
H       1.2834963987     -2.2348104257      0.5384678610
H       1.2720228628     -1.6626668924     -1.0245447025
18
step 5  E = -15.32508675 Ha  |g|max = 0.013675
C       1.4587151277     -0.0482268150      0.4884590000
C       0.8152251446      1.1768006802     -0.2596063034
C      -0.7219995773      1.3528958319      0.0092429326
C      -1.4893817169     -0.0195660003     -0.0617107995
C      -0.6926716609     -1.3912653236      0.0343382717
C       0.8858530982     -1.4015393348     -0.0482516164
H       1.2028599080     -0.0280796202      1.5367474139
H       2.5408686049      0.0220962268      0.4060473637
H       0.9482564795      1.0549926651     -1.3382577852
H       1.3593695796      2.0650831416      0.0485677263
H      -1.1596068383      2.0276722799     -0.7162734056
H      -0.8956399346      1.8184564922      0.9768591630
H      -2.0660273369     -0.0278059475     -0.9746251387
H      -2.2097273997     -0.0335323216      0.7332643817
H      -1.1177881377     -2.0444943436     -0.7246275750
H      -0.9256391721     -1.8070240640      1.0092298700
H       1.2634162563     -2.2239807687      0.5587536078
H       1.2548729406     -1.6384955703     -1.0438472654
18
step 6  E = -15.32689935 Ha  |g|max = 0.010774
C       1.4577797819     -0.0361576895      0.4964553872
C       0.8227984753      1.1915798139     -0.2655812329
C      -0.7213075307      1.3543420481      0.0159595752
C      -1.4915308153     -0.0210840557     -0.0666054783
C      -0.7027503373     -1.4005219568      0.0373180483
C       0.8811497211     -1.4082305532     -0.0581521459
H       1.2089487753     -0.0205565290      1.5489762804
H       2.5428387789      0.0056741042      0.4016885022
H       0.9483309611      1.0614125072     -1.3368935279
H       1.3575608421      2.0803006409      0.0442000552
H      -1.1398475503      2.0210454454     -0.7183892370
H      -0.8756646471      1.8092788236      0.9735212237
H      -2.0663435492     -0.0343996568     -0.9872042402
H      -2.2160638258     -0.0381757491      0.7437121160
H      -1.1046711612     -2.0642632488     -0.7200560201
H      -0.9260302029     -1.8266835419      1.0062830568
H       1.2419917990     -2.2093752223      0.5777777637
H       1.2337658147     -1.6101979882     -1.0587002935
18
step 7  E = -15.32769930 Ha  |g|max = 0.008902
C       1.4617054214     -0.0425447204      0.4961969148
C       0.8300222419      1.2010500433     -0.2690684259
C      -0.7119691273      1.3487911951      0.0138300894
C      -1.5048480262     -0.0285683749     -0.0658166877
C      -0.7033990623     -1.4064830417      0.0371522129
C       0.8823475002     -1.4024440930     -0.0568831074
H       1.2126861902     -0.0107804834      1.5539209601
H       2.5369112313     -0.0031434828      0.3996091360
H       0.9516875497      1.0647545339     -1.3319401467
H       1.3542333958      2.0885890533      0.0397657073
H      -1.1337280970      2.0210061601     -0.7235612047
H      -0.8685747301      1.8065444987      0.9817268813
H      -2.0639840487     -0.0369678135     -0.9910921123
H      -2.2178794720     -0.0388780978      0.7450664820
H      -1.0991130365     -2.0717746827     -0.7161617207
H      -0.9307530809     -1.8356156331      1.0045646345
H       1.2328792183     -2.2030701634      0.5838810267
H       1.2227312318     -1.5964777151     -1.0668808127
18
step 8  E = -15.32815837 Ha  |g|max = 0.004281
C       1.4588544923     -0.0415271875      0.4960044244
C       0.8386205076      1.1934684540     -0.2629930657
C      -0.7094270983      1.3413683892      0.0125389015
C      -1.5067934224     -0.0356576541     -0.0644170541
C      -0.7020997925     -1.4067775390      0.0397209874
C       0.8793009344     -1.3941794218     -0.0544180334
H       1.2181251123      0.0021843583      1.5515488813
H       2.5346917472     -0.0119942140      0.3972986871
H       0.9598561884      1.0679584756     -1.3315470745
H       1.3526942174      2.1013218092      0.0357878206
H      -1.1298081598      2.0200427294     -0.7269690899
H      -0.8634149479      1.8014160820      0.9882665060
H      -2.0633852727     -0.0390015321     -0.9942706383
H      -2.2237546944     -0.0381542980      0.7462907269
H      -1.0961155326     -2.0785044737     -0.7147945014
H      -0.9383926727     -1.8424360231      1.0025598680
H       1.2288307662     -2.1999096388      0.5838320957
H       1.2131728890     -1.5856311439     -1.0701296217
18
step 9  E = -15.32862530 Ha  |g|max = 0.006043
C       1.4636364180     -0.0356638817      0.5017126781
C       0.8433342317      1.1950707152     -0.2609479728
C      -0.7111343441      1.3357734012      0.0175342962
C      -1.5034672486     -0.0369709645     -0.0642134351
C      -0.7077443386     -1.4108101440      0.0429987266
C       0.8713971281     -1.3923291564     -0.0535646664
H       1.2255786420      0.0217360422      1.5468680895
H       2.5346572562     -0.0245008197      0.3937227042
H       0.9755934867      1.0707240146     -1.3290533880
H       1.3475842018      2.1102224682      0.0302713629
H      -1.1231379105      2.0129256989     -0.7253845131
H      -0.8570645382      1.7877421874      0.9863970414
H      -2.0626133212     -0.0427552801     -0.9948277553
H      -2.2332355444     -0.0370358511      0.7451741651
H      -1.0911842864     -2.0831765827     -0.7123476533
H      -0.9497245004     -1.8494783255      1.0000426147
H       1.2279590614     -2.1957359862      0.5761857854
H       1.2005208060     -1.5717503828     -1.0662582697
18
step 10  E = -15.32918516 Ha  |g|max = 0.005677
C       1.4684991218     -0.0333125071      0.4988263012
C       0.8425639229      1.2050183727     -0.2633586765
C      -0.7034212358      1.3276184993      0.0156851888
C      -1.5089648676     -0.0384436215     -0.0612175009
C      -0.7166321657     -1.4160284358      0.0470882677
C       0.8604791977     -1.3832555767     -0.0448269871
H       1.2343275736      0.0487575447      1.5508142225
H       2.5409533784     -0.0407669890      0.3886175649
H       0.9979144341      1.0731172045     -1.3238756666
H       1.3394309370      2.1180182478      0.0245026519
H      -1.1153189486      2.0014705705     -0.7197290378
H      -0.8511440395      1.7703036721      0.9877754968
H      -2.0596083467     -0.0478741614     -0.9924799480
H      -2.2413553854     -0.0356330300      0.7369009198
H      -1.0862096429     -2.0881787058     -0.7113057146
H      -0.9659935123     -1.8587555957      0.9997609664
H       1.2304712859     -2.1938690874      0.5639234436
H       1.1849633974     -1.5541992778     -1.0627916930
18
step 11  E = -15.32939035 Ha  |g|max = 0.004557
C       1.4665144631     -0.0281375972      0.4986858728
C       0.8468993127      1.2020468506     -0.2663576615
C      -0.6997723842      1.3215566849      0.0136923766
C      -1.5112232987     -0.0419777384     -0.0617820275
C      -0.7209673414     -1.4147002429      0.0514170684
C       0.8577171691     -1.3779600978     -0.0416344708
H       1.2391333571      0.0586616984      1.5534017702
H       2.5459356669     -0.0463889371      0.3855784601
H       1.0060349832      1.0740880636     -1.3240270940
H       1.3370450000      2.1227655175      0.0254647140
H      -1.1155833946      1.9993700506     -0.7184963076
H      -0.8497942491      1.7647208495      0.9910810182
H      -2.0587036449     -0.0495073031     -0.9922797736
H      -2.2445422068     -0.0343426031      0.7332784145
H      -1.0863919178     -2.0903142463     -0.7141509412
H      -0.9733500947     -1.8627917545      1.0021565508
H       1.2336909482     -2.1961259744      0.5596757070
H       1.1783126868     -1.5469761115     -1.0613938789
18
step 12  E = -15.32957546 Ha  |g|max = 0.003865
C       1.4732069737     -0.0235362311      0.5046429886
C       0.8554335552      1.2011635139     -0.2694036127
C      -0.6992497734      1.3157929845      0.0140223575
C      -1.5118337702     -0.0450057257     -0.0641184793
C      -0.7253182728     -1.4184736526      0.0551117986
C       0.8559669111     -1.3757445962     -0.0370370064
H       1.2459617593      0.0678431533      1.5553953665
H       2.5456704491     -0.0499519163      0.3818529017
H       1.0138733936      1.0743253458     -1.3308513867
H       1.3338900311      2.1249618249      0.0295616364
H      -1.1194752028      1.9990599671     -0.7174193413
H      -0.8478686472      1.7579526764      0.9925254817
H      -2.0595523526     -0.0511681749     -0.9958963673
H      -2.2491675594     -0.0317446896      0.7306259200
H      -1.0874548796     -2.0883479699     -0.7164921549
H      -0.9818190599     -1.8665099890      1.0070814362
H       1.2383900803     -2.1984505069      0.5546510726
H       1.1703013502     -1.5381789240     -1.0599428094
18
step 13  E = -15.32968658 Ha  |g|max = 0.003181
C       1.4762576790     -0.0260327657      0.5061319533
C       0.8558573516      1.2027385964     -0.2717435902
C      -0.6966765995      1.3158197130      0.0114562566
C      -1.5143694731     -0.0464453874     -0.0651535084
C      -0.7258082756     -1.4233774801      0.0585943902
C       0.8553570466     -1.3745340075     -0.0319078242
H       1.2519402102      0.0740499953      1.5594916151
H       2.5474680820     -0.0508981308      0.3794434287
H       1.0191902735      1.0743710774     -1.3360315169
H       1.3322338691      2.1251510420      0.0334569390
H      -1.1224660828      1.9972323858     -0.7139984199
H      -0.8458099714      1.7520977787      0.9919691986
H      -2.0603266747     -0.0526032570     -1.0001068918
H      -2.2517349642     -0.0294630061      0.7277720453
H      -1.0885879865     -2.0853286072     -0.7171874517
H      -0.9878558783     -1.8683866251      1.0099525949
H       1.2420631019     -2.1995150419      0.5509319169
H       1.1642232177     -1.5308892068     -1.0587613257
18
step 14  E = -15.32975426 Ha  |g|max = 0.002250
C       1.4738643703     -0.0259553981      0.5060529349
C       0.8549425219      1.2010539357     -0.2743590679
C      -0.6962547247      1.3145830102      0.0094503491
C      -1.5141542898     -0.0469434284     -0.0671828898
C      -0.7261022250     -1.4227079148      0.0620965931
C       0.8546813096     -1.3757429332     -0.0302879513
H       1.2576016346      0.0774270937      1.5621374486
H       2.5510387791     -0.0506680523      0.3778557270
H       1.0221300399      1.0751919967     -1.3364737789
H       1.3319262487      2.1244265727      0.0363705464
H      -1.1251538386      1.9965500634     -0.7113615999
H      -0.8434757425      1.7477442413      0.9906154953
H      -2.0601027010     -0.0541020228     -1.0028228717
H      -2.2536091122     -0.0275421922      0.7256625715
H      -1.0894376447     -2.0837502378     -0.7173108766
H      -0.9918823919     -1.8697697370      1.0114184251
H       1.2452773223     -2.2007894618      0.5491975294
H       1.1596653186     -1.5250184767     -1.0567487644
18
step 15  E = -15.32982169 Ha  |g|max = 0.002253
C       1.4755819083     -0.0242680537      0.5059586089
C       0.8546952388      1.1998760832     -0.2744316393
C      -0.6981969408      1.3103978483      0.0074084150
C      -1.5136427497     -0.0462712456     -0.0694133506
C      -0.7281229017     -1.4204303419      0.0638410563
C       0.8525945550     -1.3772327338     -0.0277296711
H       1.2648913518      0.0798414468      1.5628205957
H       2.5500287570     -0.0492656410      0.3764563865
H       1.0246478240      1.0766491405     -1.3353487388
H       1.3310971741      2.1198728684      0.0384402459
H      -1.1292353789      1.9978275119     -0.7097004602
H      -0.8397696611      1.7430025706      0.9891080145
H      -2.0581926999     -0.0566885968     -1.0050800979
H      -2.2546729812     -0.0250474487      0.7217939261
H      -1.0893894162     -2.0814198831     -0.7147706910
H      -0.9959326224     -1.8710073144      1.0126011847
H       1.2495030626     -2.2032708405      0.5483650848
H       1.1550702855     -1.5185783326     -1.0560090321
18
step 16  E = -15.32985447 Ha  |g|max = 0.001106
C       1.4763234398     -0.0253789360      0.5063420826
C       0.8534617136      1.1986242756     -0.2734457214
C      -0.6981619781      1.3108467762      0.0055970975
C      -1.5154145990     -0.0469915121     -0.0703329844
C      -0.7291241402     -1.4206208230      0.0658694120
C       0.8526677725     -1.3758021270     -0.0251542124
H       1.2695492848      0.0808890154      1.5622843660
H       2.5488683236     -0.0479597557      0.3750245305
H       1.0259962384      1.0775564788     -1.3346902860
H       1.3307216715      2.1171481985      0.0396945576
H      -1.1315691830      1.9985214715     -0.7086111528
H      -0.8374514469      1.7399700783      0.9887140042
H      -2.0563645482     -0.0586522908     -1.0066918642
H      -2.2550193204     -0.0233497404      0.7186416308
H      -1.0893032180     -2.0802422214     -0.7127187824
H      -0.9981314942     -1.8706860816      1.0123171724
H       1.2515074036     -2.2046609245      0.5477708682
H       1.1523988343     -1.5152248595     -1.0563008659
18
step 17  E = -15.32987253 Ha  |g|max = 0.001399
C       1.4752303018     -0.0261579001      0.5068231805
C       0.8529705878      1.1968056198     -0.2734056863
C      -0.6984681669      1.3119887885      0.0051589790
C      -1.5151308503     -0.0473959105     -0.0713042763
C      -0.7280913432     -1.4206298372      0.0675977539
C       0.8534938079     -1.3756563277     -0.0245818219
H       1.2725098998      0.0811169540      1.5624444369
H       2.5493222497     -0.0468462339      0.3727913381
H       1.0265754686      1.0779653244     -1.3338100136
H       1.3308055363      2.1161972043      0.0410440072
H      -1.1328763306      1.9995278502     -0.7084052650
H      -0.8361731158      1.7381310607      0.9893609845
H      -2.0551688744     -0.0605196306     -1.0090812493
H      -2.2569626463     -0.0220086239      0.7173153746
H      -1.0893400205     -2.0806939200     -0.7116582316
H      -0.9997613577     -1.8699866834      1.0129005079
H       1.2516626894     -2.2044318946      0.5466790352
H       1.1503568715     -1.5134188325     -1.0555591867
18
step 18  E = -15.32989039 Ha  |g|max = 0.001559
C       1.4764096470     -0.0263599754      0.5065876116
C       0.8527779931      1.1969402818     -0.2727557241
C      -0.6993125006      1.3118801099      0.0050277272
C      -1.5146113340     -0.0468471713     -0.0722621250
C      -0.7269072515     -1.4207212107      0.0681330088
C       0.8531291441     -1.3762932587     -0.0243749535
H       1.2752349837      0.0809865965      1.5640302887
H       2.5489451111     -0.0455224177      0.3694812041
H       1.0271037117      1.0778490534     -1.3333799708
H       1.3306506980      2.1145505231      0.0426131433
H      -1.1339925235      2.0013229377     -0.7084875701
H      -0.8351668185      1.7366034386      0.9910456226
H      -2.0533096408     -0.0630553378     -1.0121253659
H      -2.2595936179     -0.0205961760      0.7153429888
H      -1.0888708527     -2.0816012552     -0.7098721457
H      -1.0014917709     -1.8690369329      1.0149389501
H       1.2515694872     -2.2042114460      0.5454620829
H       1.1483901764     -1.5119007723     -1.0550948835
18
step 19  E = -15.32992693 Ha  |g|max = 0.001882
C       1.4786412247     -0.0255770271      0.5074073628
C       0.8515231100      1.1979186552     -0.2715093797
C      -0.7006809332      1.3129367277      0.0056127326
C      -1.5169384489     -0.0472550931     -0.0751288266
C      -0.7296247482     -1.4207136690      0.0714376233
C       0.8516746193     -1.3748191945     -0.0237661133
H       1.2816992831      0.0796042365      1.5669045225
H       2.5491225141     -0.0427476931      0.3600236782
H       1.0280535005      1.0769498658     -1.3325555340
H       1.3307612994      2.1121876011      0.0470327025
H      -1.1348739938      2.0050293461     -0.7069570251
H      -0.8340013890      1.7333630812      0.9947720642
H      -2.0465253202     -0.0691411654     -1.0178190761
H      -2.2643174451     -0.0179542679      0.7073126719
H      -1.0868757255     -2.0845829642     -0.7049196870
H      -1.0037520963     -1.8650762889      1.0192926790
H       1.2520330233     -2.2062173015      0.5439148588
H       1.1450359878     -1.5099179191     -1.0567453008
18
step 20  E = -15.32995095 Ha  |g|max = 0.001421
C       1.4776836455     -0.0247786093      0.5077666016
C       0.8507033555      1.1967259269     -0.2708675241
C      -0.7018250022      1.3133244813      0.0064323068
C      -1.5167565658     -0.0473931169     -0.0773583728
C      -0.7310731262     -1.4194955353      0.0744992197
C       0.8511683069     -1.3743617880     -0.0230151198
H       1.2867674104      0.0784355516      1.5675626628
H       2.5502519125     -0.0412093905      0.3534566048
H       1.0284096657      1.0766128321     -1.3311434893
H       1.3312067955      2.1124234148      0.0501583046
H      -1.1346898165      2.0069661484     -0.7044824550
H      -0.8339569177      1.7311170519      0.9963340469
H      -2.0421388518     -0.0727015481     -1.0225921452
H      -2.2685129172     -0.0165633285      0.7015760301
H      -1.0860236520     -2.0873196380     -0.7016054135
H      -1.0047490594     -1.8621354309      1.0227284378
H       1.2518330841     -2.2068773236      0.5423532685
H       1.1426560593     -1.5087828108     -1.0574929618
18
step 21  E = -15.33000887 Ha  |g|max = 0.002410
C       1.4791878701     -0.0262948702      0.5047956481
C       0.8489346340      1.1977772270     -0.2664851650
C      -0.7024706413      1.3113728160      0.0084858020
C      -1.5155600931     -0.0457811711     -0.0830080645
C      -0.7296710491     -1.4182246001      0.0798934171
C       0.8490329306     -1.3745142439     -0.0218329114
H       1.2995339017      0.0760035964      1.5676791581
H       2.5488632724     -0.0386091581      0.3396598220
H       1.0285903483      1.0763708987     -1.3270698883
H       1.3305775762      2.1129888424      0.0555064114
H      -1.1331702458      2.0107393641     -0.6959558163
H      -0.8361366719      1.7261406566      0.9984798252
H      -2.0321402936     -0.0785719092     -1.0355970928
H      -2.2800082331     -0.0146577193      0.6866336192
H      -1.0852910448     -2.0930470424     -0.6914289591
H      -1.0059571154     -1.8548245080      1.0329637011
H       1.2503834512     -2.2067037163      0.5380406509
H       1.1362553808     -1.5061776835     -1.0564500265
18
step 22  E = -15.33008882 Ha  |g|max = 0.002412
C       1.4828798989     -0.0282431631      0.5019101748
C       0.8487938448      1.2003688260     -0.2608719307
C      -0.7015963185      1.3102847474      0.0125995416
C      -1.5188796534     -0.0484145560     -0.0927999084
C      -0.7313000595     -1.4186778247      0.0888890431
C       0.8468196984     -1.3726899972     -0.0219791259
H       1.3184531612      0.0724831376      1.5655956455
H       2.5464483270     -0.0365048956      0.3208035028
H       1.0279310845      1.0774782018     -1.3200210864
H       1.3281071371      2.1132424656      0.0618884404
H      -1.1313102605      2.0164590344     -0.6842882531
H      -0.8407093952      1.7189474950      1.0024842551
H      -2.0158497292     -0.0841711753     -1.0527111659
H      -2.2947544390     -0.0129206337      0.6624653335
H      -1.0849618111     -2.0995956583     -0.6742767281
H      -1.0055127194     -1.8425758189      1.0460495649
H       1.2494379845     -2.2083916580      0.5339389102
H       1.1269567059     -1.5030919078     -1.0553658876
18
step 23  E = -15.33019850 Ha  |g|max = 0.003439
C       1.4858004678     -0.0265332617      0.4982643732
C       0.8495125681      1.1991143044     -0.2536096236
C      -0.7038931205      1.3065133408      0.0178319155
C      -1.5200087430     -0.0530479648     -0.1052766040
C      -0.7364005765     -1.4160750363      0.1010940888
C       0.8431640382     -1.3714821627     -0.0188211663
H       1.3440349107      0.0676845687      1.5630937666
H       2.5482654785     -0.0365436783      0.2959645852
H       1.0263664875      1.0814297157     -1.3115034765
H       1.3252388312      2.1161563096      0.0704481692
H      -1.1295362518      2.0247930314     -0.6709559133
H      -0.8479389926      1.7090511156      1.0119007692
H      -1.9934001418     -0.0886553213     -1.0776155502
H      -2.3147847400     -0.0119517552      0.6287634511
H      -1.0869984078     -2.1097314923     -0.6505762839
H      -1.0029729778     -1.8255032036      1.0645063332
H       1.2492172382     -2.2111199758      0.5298093215
H       1.1152866630     -1.5001121370     -1.0590075550
18
step 24  E = -15.33046426 Ha  |g|max = 0.007441
C       1.5024691208     -0.0288648515      0.4885527096
C       0.8423723218      1.2041689875     -0.2359922023
C      -0.7127673994      1.2978143359      0.0321830344
C      -1.5207253932     -0.0534231961     -0.1354663740
C      -0.7411195614     -1.4106692034      0.1271898773
C       0.8331903750     -1.3709254396     -0.0162131477
H       1.4020079136      0.0584240846      1.5631363939
H       2.5548882876     -0.0411958256      0.2408449977
H       1.0228217713      1.0936300548     -1.2978821628
H       1.3177293258      2.1218982574      0.0895042480
H      -1.1261161920      2.0416599009     -0.6433165719
H      -0.8648297370      1.6822115973      1.0361742588
H      -1.9393666422     -0.0955503106     -1.1374446000
H      -2.3625443428     -0.0124603764      0.5501668569
H      -1.0972911847     -2.1368494227     -0.5953670183
H      -0.9965092508     -1.7858345787      1.1120473724
H       1.2497005097     -2.2160489256      0.5222946924
H       1.0870410914     -1.4939992177     -1.0661011045
18
step 25  E = -15.33069524 Ha  |g|max = 0.002950
C       1.5155754433     -0.0334578201      0.4822683816
C       0.8364440684      1.2090292451     -0.2236572126
C      -0.7196588182      1.2986020361      0.0459825197
C      -1.5258111256     -0.0544382758     -0.1623155208
C      -0.7457315575     -1.4086650581      0.1491418856
C       0.8299148985     -1.3707339267     -0.0174325193
H       1.4508235901      0.0510256386      1.5618082575
H       2.5614929677     -0.0468252407      0.1957952056
H       1.0185376248      1.1058785206     -1.2862939064
H       1.3101665196      2.1257779081      0.1057110432
H      -1.1234516441      2.0523285186     -0.6196303287
H      -0.8786855077      1.6565897117      1.0551666699
H      -1.8912756157     -0.1001100205     -1.1853447112
H      -2.4006954310     -0.0138955534      0.4825069135
H      -1.1076002308     -2.1592231515     -0.5470516466
H      -0.9906083418     -1.7505606282      1.1507725661
H       1.2492926232     -2.2179590666      0.5153530056
H       1.0622200943     -1.4893774135     -1.0684687790
18
step 26  E = -15.33087171 Ha  |g|max = 0.005320
C       1.5157420032     -0.0334258558      0.4803496563
C       0.8387296052      1.2059902792     -0.2217302193
C      -0.7201034411      1.3013280877      0.0480845836
C      -1.5276745930     -0.0566470061     -0.1673564982
C      -0.7484763665     -1.4078791430      0.1526569991
C       0.8317005421     -1.3699074637     -0.0162079688
H       1.4615617947      0.0491113750      1.5570115818
H       2.5611341289     -0.0501792354      0.1892855308
H       1.0145700404      1.1119479453     -1.2834759236
H       1.3069092484      2.1254387612      0.1101299151
H      -1.1252265409      2.0522093828     -0.6146354526
H      -0.8814650591      1.6481292297      1.0598976163
H      -1.8764947112     -0.0996033266     -1.1913010852
H      -2.4050196075     -0.0156239186      0.4643651889
H      -1.1119368672     -2.1626916560     -0.5323780626
H      -0.9884127425     -1.7386773370      1.1552465158
H       1.2483703869     -2.2156057668      0.5120896284
H       1.0570413986     -1.4899290319     -1.0677200413
18
step 27  E = -15.33117184 Ha  |g|max = 0.003299
C       1.5194120102     -0.0360622787      0.4732971142
C       0.8380753975      1.2055585228     -0.2171182859
C      -0.7187079946      1.2952179206      0.0519222502
C      -1.5188595089     -0.0555592567     -0.1738737065
C      -0.7466434847     -1.4013851022      0.1567123698
C       0.8260077841     -1.3656935210     -0.0158087723
H       1.4781784476      0.0463123272      1.5480179038
H       2.5572496209     -0.0582997045      0.1828638192
H       1.0053973225      1.1254573483     -1.2821192632
H       1.3003066083      2.1218036540      0.1186970145
H      -1.1323961009      2.0525960549     -0.6087237754
H      -0.8854031540      1.6315790816      1.0692314310
H      -1.8483165921     -0.0975243660     -1.2015169596
H      -2.4134361809     -0.0202306776      0.4340042395
H      -1.1234293048     -2.1701581229     -0.5056015716
H      -0.9848529595     -1.7143667678      1.1623604831
H       1.2485263500     -2.2125390145      0.5078815722
H       1.0498403591     -1.4927209612     -1.0659136341
18
step 28  E = -15.33137277 Ha  |g|max = 0.005110
C       1.5175123414     -0.0375255529      0.4681274577
C       0.8318807287      1.2091795563     -0.2187404120
C      -0.7209205436      1.2953083004      0.0576515472
C      -1.5103653477     -0.0542812904     -0.1796533669
C      -0.7454043657     -1.3974500588      0.1605112936
C       0.8227087822     -1.3692097663     -0.0202069054
H       1.4859681971      0.0450647329      1.5455872695
H       2.5618349373     -0.0659435993      0.1772581275
H       0.9984103018      1.1366847269     -1.2832477245
H       1.2980107953      2.1214583028      0.1278177185
H      -1.1362321954      2.0475107095     -0.6007760450
H      -0.8860072054      1.6183064182      1.0729377467
H      -1.8267004655     -0.0953945677     -1.2135603461
H      -2.4189252576     -0.0238769266      0.4153266026
H      -1.1332727102     -2.1754139048     -0.4877446617
H      -0.9824718057     -1.6945385672      1.1722716760
H       1.2486288779     -2.2105872016      0.5071954674
H       1.0462931211     -1.4953063072     -1.0664430107
18
step 29  E = -15.33160302 Ha  |g|max = 0.003946
C       1.5184519200     -0.0381861450      0.4599518682
C       0.8284472966      1.2149021435     -0.2183648099
C      -0.7228495363      1.2947003135      0.0619703753
C      -1.5108645230     -0.0544436412     -0.1897734304
C      -0.7481487131     -1.3996201463      0.1674682110
C       0.8235635693     -1.3736304211     -0.0225811456
H       1.4900187488      0.0437895106      1.5426841959
H       2.5644750243     -0.0750087506      0.1703505628
H       0.9897379832      1.1514926752     -1.2877569324
H       1.2959862168      2.1216917037      0.1395630177
H      -1.1423281888      2.0421836001     -0.5899655286
H      -0.8861176521      1.6050983511      1.0825100612
H      -1.7984028835     -0.0922276545     -1.2297522881
H      -2.4200799057     -0.0282528839      0.3925441436
H      -1.1452814328     -2.1793874476     -0.4664064411
H      -0.9784977999     -1.6684896240      1.1875040837
H       1.2487985563     -2.2105266631      0.5085468856
H       1.0440389806     -1.5001000742     -1.0741801336
18
step 30  E = -15.33184489 Ha  |g|max = 0.002558
C       1.5216046908     -0.0383516579      0.4548586705
C       0.8314324286      1.2172742134     -0.2190095930
C      -0.7239500533      1.2874799487      0.0695656996
C      -1.5072932984     -0.0591145246     -0.2021590856
C      -0.7501403921     -1.3975112224      0.1759058358
C       0.8230733836     -1.3750234799     -0.0279772594
H       1.4900422852      0.0422603310      1.5338940419
H       2.5628899194     -0.0824152231      0.1627512534
H       0.9809382071      1.1683684475     -1.2905705059
H       1.2942859980      2.1231258961      0.1513576776
H      -1.1518087189      2.0432729750     -0.5807247188
H      -0.8860530505      1.5940930151      1.0948655876
H      -1.7701053015     -0.0892676568     -1.2494147175
H      -2.4240533764     -0.0318713529      0.3708618758
H      -1.1586130944     -2.1857122101     -0.4458605485
H      -0.9737845532     -1.6419409395      1.2061194683
H       1.2504261581     -2.2140448729      0.5119054083
H       1.0420558848     -1.5066370022     -1.0820561170
18
step 31  E = -15.33200250 Ha  |g|max = 0.003750
C       1.5193313141     -0.0426165019      0.4463220981
C       0.8336384308      1.2167790718     -0.2160716208
C      -0.7226344456      1.2873172532      0.0733856812
C      -1.5005356830     -0.0633927352     -0.2093615019
C      -0.7472111504     -1.3962325257      0.1806853551
C       0.8222218651     -1.3789643604     -0.0299759881
H       1.4849261769      0.0412654109      1.5249466820
H       2.5617523222     -0.0838038145      0.1558544205
H       0.9773458377      1.1821137643     -1.2893693572
H       1.2929870388      2.1240349575      0.1573909025
H      -1.1570733416      2.0447643307     -0.5676867113
H      -0.8852965146      1.5863841936      1.1021330787
H      -1.7518053695     -0.0893960303     -1.2662574735
H      -2.4308176602     -0.0336291466      0.3529413889
H      -1.1666108677     -2.1912826967     -0.4273460306
H      -0.9682587307     -1.6231778728      1.2190587922
H       1.2496141770     -2.2130384639      0.5101013387
H       1.0393733133     -1.5131402692     -1.0824378651
18
step 32  E = -15.33220935 Ha  |g|max = 0.005016
C       1.5176133204     -0.0490281374      0.4360813115
C       0.8312626572      1.2206903610     -0.2144679957
C      -0.7201519192      1.2859792720      0.0799279196
C      -1.4982214139     -0.0617793984     -0.2215559016
C      -0.7451443258     -1.3991477273      0.1900059075
C       0.8200985830     -1.3839917253     -0.0336161194
H       1.4757657543      0.0391623338      1.5122576493
H       2.5596758524     -0.0832990543      0.1464210214
H       0.9754713001      1.1995266598     -1.2851427855
H       1.2921150249      2.1232870333      0.1640425893
H      -1.1621558472      2.0486016633     -0.5484961010
H      -0.8834735485      1.5757853121      1.1088434923
H      -1.7279486826     -0.0918238045     -1.2812692840
H      -2.4355989427     -0.0361495852      0.3246438069
H      -1.1740147760     -2.1982711937     -0.4001020526
H      -0.9584697966     -1.5994635577      1.2308347019
H       1.2491130314     -2.2128576113      0.5072102763
H       1.0350099225     -1.5232364301     -1.0813049627
18
step 33  E = -15.33252879 Ha  |g|max = 0.002914
C       1.5141263088     -0.0473254460      0.4206415481
C       0.8261349479      1.2259312279     -0.2133319682
C      -0.7248745563      1.2811867317      0.0878529993
C      -1.4908423206     -0.0621016254     -0.2366025898
C      -0.7516839952     -1.3898718387      0.1991334311
C       0.8144743739     -1.3902667611     -0.0378331275
H       1.4608144493      0.0331804857      1.4951902127
H       2.5567099238     -0.0809136956      0.1314951525
H       0.9760528933      1.2247423376     -1.2808305627
H       1.2932348031      2.1210172054      0.1756761332
H      -1.1666036884      2.0588978834     -0.5176898262
H      -0.8794396976      1.5576682068      1.1202924041
H      -1.6913016278     -0.0979634972     -1.2978161110
H      -2.4407049538     -0.0392362600      0.2751929850
H      -1.1828522535     -2.2136571299     -0.3558461033
H      -0.9412021984     -1.5662448450      1.2495260053
H       1.2517980263     -2.2188483552      0.5053394804
H       1.0271049643     -1.5422104548     -1.0860761468
18
step 34  E = -15.33272958 Ha  |g|max = 0.004520
C       1.5081805583     -0.0478634744      0.4091108366
C       0.8221026948      1.2320008907     -0.2131641868
C      -0.7265086690      1.2835873311      0.0922896316
C      -1.4843144248     -0.0651334050     -0.2472033759
C      -0.7478850938     -1.3883499096      0.2080634597
C       0.8135958001     -1.3912453080     -0.0428989646
H       1.4532565658      0.0271998347      1.4889942553
H       2.5535298548     -0.0769666566      0.1211916668
H       0.9779497918      1.2410468296     -1.2864007730
H       1.2939866867      2.1186714961      0.1884075849
H      -1.1701609126      2.0730722306     -0.4977700404
H      -0.8765314878      1.5387919707      1.1345510592
H      -1.6627575650     -0.1038769169     -1.3132812419
H      -2.4534942208     -0.0395850666      0.2381505802
H      -1.1895976466     -2.2255878054     -0.3204713837
H      -0.9288073933     -1.5409919022      1.2638730854
H       1.2514910318     -2.2220960721      0.5049018540
H       1.0169092139     -1.5586900844     -1.0940297867
18
step 35  E = -15.33285737 Ha  |g|max = 0.001715
C       1.5066107542     -0.0474742475      0.4059426436
C       0.8215336476      1.2356598781     -0.2178596940
C      -0.7286072662      1.2855098110      0.0966421264
C      -1.4834495775     -0.0655263451     -0.2538746441
C      -0.7455772382     -1.3892290417      0.2150153188
C       0.8148446186     -1.3961654033     -0.0485241284
H       1.4503441626      0.0229086050      1.4837613365
H       2.5496554536     -0.0737892590      0.1155338125
H       0.9783923235      1.2507275282     -1.2881255749
H       1.2942447819      2.1173839778      0.1975728307
H      -1.1728573229      2.0832131793     -0.4859144871
H      -0.8744612629      1.5248452806      1.1427748966
H      -1.6436131049     -0.1080160315     -1.3235813274
H      -2.4608775168     -0.0396932068      0.2139822945
H      -1.1932276399     -2.2321096770     -0.2976017731
H      -0.9208314866     -1.5247420480      1.2731416996
H       1.2499004479     -2.2209547154      0.5036405451
H       1.0089206159     -1.5685644224     -1.0982113944
18
step 36  E = -15.33291566 Ha  |g|max = 0.002361
C       1.5070171341     -0.0489705106      0.4037911182
C       0.8230693827      1.2345065934     -0.2166606609
C      -0.7301353616      1.2842168297      0.0951238073
C      -1.4852789535     -0.0642275650     -0.2568255237
C      -0.7483742119     -1.3859849776      0.2171763841
C       0.8136766052     -1.3974348835     -0.0499688343
H       1.4536662580      0.0215079097      1.4824264928
H       2.5472797400     -0.0715649529      0.1162611555
H       0.9770924399      1.2524754628     -1.2882296869
H       1.2927728719      2.1161948369      0.1998605823
H      -1.1744061618      2.0857064212     -0.4810821821
H      -0.8729543677      1.5172672424      1.1434531902
H      -1.6348781340     -0.1096617441     -1.3264493801
H      -2.4611932905     -0.0400902799      0.2057813274
H      -1.1934817960     -2.2324427866     -0.2904805393
H      -0.9174679627     -1.5195649493      1.2780758244
H       1.2496767695     -2.2179276007      0.5027075606
H       1.0048632961     -1.5700212231     -1.1006460851
18
step 37  E = -15.33297833 Ha  |g|max = 0.001575
C       1.5052789679     -0.0515415589      0.4031912456
C       0.8214814659      1.2323875062     -0.2162662638
C      -0.7293795093      1.2822558854      0.0941954031
C      -1.4843499080     -0.0636014008     -0.2614443895
C      -0.7500805182     -1.3817544362      0.2215102943
C       0.8091344176     -1.3950592538     -0.0526157359
H       1.4594952446      0.0196362118      1.4805295501
H       2.5476837344     -0.0691044807      0.1169562487
H       0.9752996137      1.2534691801     -1.2869956513
H       1.2907773074      2.1149567947      0.2024165206
H      -1.1765540184      2.0882922935     -0.4755800959
H      -0.8710556211      1.5070750023      1.1426166522
H      -1.6245273524     -0.1116948792     -1.3309227920
H      -2.4640767773     -0.0402117586      0.1974922487
H      -1.1941934701     -2.2318635450     -0.2828885034
H      -0.9135990902     -1.5131232535      1.2831148730
H       1.2502066455     -2.2155019565      0.5024128706
H       0.9994029732     -1.5706325731     -1.1034078478
18
step 38  E = -15.33302023 Ha  |g|max = 0.001641
C       1.5058589863     -0.0503663323      0.4022572411
C       0.8193906525      1.2328006449     -0.2159802564
C      -0.7291174028      1.2820470301      0.0936815366
C      -1.4832803813     -0.0645776810     -0.2630532114
C      -0.7494889777     -1.3817807375      0.2243544538
C       0.8072630715     -1.3948357879     -0.0526098154
H       1.4638313909      0.0178034425      1.4809158914
H       2.5492326609     -0.0686252220      0.1164975906
H       0.9743266686      1.2527016467     -1.2856778805
H       1.2885385180      2.1128914199      0.2033820144
H      -1.1773365155      2.0886250417     -0.4714930767
H      -0.8699289627      1.4995093580      1.1426097603
H      -1.6179999476     -0.1134269732     -1.3366399760
H      -2.4668667007     -0.0394088331      0.1914735554
H      -1.1953198075     -2.2295506776     -0.2775753094
H      -0.9116666820     -1.5076145233      1.2861655894
H       1.2490412587     -2.2129246858      0.5006788149
H       0.9944661713     -1.5692833827     -1.1046722479
18
step 39  E = -15.33307537 Ha  |g|max = 0.001793
C       1.5091392154     -0.0476825881      0.4020445986
C       0.8188889226      1.2329568368     -0.2156978650
C      -0.7320926031      1.2784882511      0.0948942882
C      -1.4840077743     -0.0668475032     -0.2690897689
C      -0.7482388311     -1.3802515812      0.2287019947
C       0.8096357956     -1.3914423196     -0.0530357336
H       1.4694249507      0.0151038670      1.4820333061
H       2.5512479960     -0.0695441067      0.1135854822
H       0.9735739224      1.2500730389     -1.2850122616
H       1.2854827529      2.1117790264      0.2044009156
H      -1.1785831729      2.0891647363     -0.4669562733
H      -0.8690056661      1.4898305540      1.1456775323
H      -1.6093987954     -0.1164655288     -1.3415144825
H      -2.4686450591     -0.0374360231      0.1811227739
H      -1.1992504037     -2.2277927445     -0.2714011651
H      -0.9104421104     -1.4991673695      1.2909185971
H       1.2471756641     -2.2119133236      0.4979668051
H       0.9860390543     -1.5648695161     -1.1043240137
18
step 40  E = -15.33311305 Ha  |g|max = 0.001873
C       1.5119576919     -0.0472974652      0.4033208548
C       0.8173339087      1.2314035651     -0.2150471110
C      -0.7328330249      1.2755448645      0.0955990343
C      -1.4834683972     -0.0682298258     -0.2717419860
C      -0.7481830762     -1.3775916570      0.2298892643
C       0.8090671927     -1.3877815640     -0.0512151849
H       1.4734231833      0.0136710633      1.4821133613
H       2.5531108121     -0.0702351712      0.1103012136
H       0.9733614185      1.2479148635     -1.2854196327
H       1.2838635526      2.1135477055      0.2052327825
H      -1.1796485361      2.0891149235     -0.4634408275
H      -0.8691798786      1.4830515913      1.1490641566
H      -1.6036800027     -0.1192828794     -1.3457392534
H      -2.4698700428     -0.0363987802      0.1723878030
H      -1.2017355015     -2.2270937729     -0.2663211884
H      -0.9101340063     -1.4927135231      1.2948659858
H       1.2470080549     -2.2128546592      0.4960393447
H       0.9805504046     -1.5607856028     -1.1055738497
18
step 41  E = -15.33318358 Ha  |g|max = 0.001778
C       1.5164669697     -0.0486013187      0.4049572779
C       0.8185255943      1.2304956655     -0.2124316635
C      -0.7321256458      1.2735232636      0.0999336949
C      -1.4811434157     -0.0673828024     -0.2776738515
C      -0.7523947318     -1.3739705513      0.2354873260
C       0.8046709109     -1.3876616611     -0.0490374165
H       1.4811637593      0.0132811361      1.4835689602
H       2.5565221603     -0.0711319299      0.1025116360
H       0.9730137816      1.2435135543     -1.2852646071
H       1.2794460969      2.1176041577      0.2042284785
H      -1.1811960765      2.0865364180     -0.4553970367
H      -0.8711103332      1.4708486172      1.1536297890
H      -1.5941397826     -0.1253276958     -1.3526606531
H      -2.4736033177     -0.0363435648      0.1550015099
H      -1.2032226540     -2.2262505266     -0.2550573871
H      -0.9104288636     -1.4798982486      1.2980817557
H       1.2478133675     -2.2149892276      0.4909123888
H       0.9726857431     -1.5502616643     -1.1064753733
18
step 42  E = -15.33321942 Ha  |g|max = 0.001265
C       1.5170642037     -0.0498035510      0.4040371332
C       0.8202931606      1.2308721989     -0.2119901423
C      -0.7305453562      1.2719020609      0.1012907879
C      -1.4820676035     -0.0667362259     -0.2813075250
C      -0.7526206543     -1.3724796628      0.2369442098
C       0.8035635605     -1.3878304624     -0.0492668225
H       1.4861210068      0.0139075329      1.4850337278
H       2.5567143958     -0.0719511200      0.0987082248
H       0.9724195405      1.2413135497     -1.2825369769
H       1.2773225181      2.1192634677      0.2025832672
H      -1.1818614562      2.0858664404     -0.4507359642
H      -0.8726340439      1.4651651420      1.1565436789
H      -1.5885019628     -0.1279014549     -1.3555207838
H      -2.4753246718     -0.0366657127      0.1453734271
H      -1.2039258490     -2.2271396464     -0.2486735786
H      -0.9120449513     -1.4731839234      1.3019470763
H       1.2478788851     -2.2163967442      0.4873174236
H       0.9690927406     -1.5442182958     -1.1054323053
18
step 43  E = -15.33326389 Ha  |g|max = 0.001975
C       1.5168826172     -0.0496521274      0.4051416660
C       0.8200342287      1.2293475504     -0.2091037500
C      -0.7296681147      1.2689217314      0.1027056379
C      -1.4804860114     -0.0685155407     -0.2856563097
C      -0.7526594976     -1.3705989293      0.2406837370
C       0.8038803615     -1.3858808624     -0.0480011662
H       1.4947187249      0.0155673920      1.4835695854
H       2.5531935094     -0.0743761267      0.0940886557
H       0.9716891567      1.2390559932     -1.2789934150
H       1.2770026496      2.1221767835      0.1994367071
H      -1.1817595246      2.0869739815     -0.4433322360
H      -0.8744722573      1.4580413490      1.1593453481
H      -1.5794364726     -0.1295621124     -1.3608064778
H      -2.4800884312     -0.0372014249      0.1324085854
H      -1.2050143271     -2.2311104274     -0.2389522054
H      -0.9158774273     -1.4633592216      1.3074445582
H       1.2472858665     -2.2193307611      0.4805262968
H       0.9657182725     -1.5365136950     -1.1061903202
18
step 44  E = -15.33329479 Ha  |g|max = 0.001367
C       1.5176532045     -0.0490436881      0.4060380880
C       0.8191634476      1.2300906801     -0.2067978430
C      -0.7318190717      1.2677243476      0.1049579972
C      -1.4806475822     -0.0699188510     -0.2882616640
C      -0.7537897417     -1.3721523627      0.2444801353
C       0.8024713471     -1.3846897098     -0.0474668598
H       1.5007772721      0.0169006279      1.4836770085
H       2.5507276522     -0.0762804374      0.0907994084
H       0.9711719763      1.2375832977     -1.2776701769
H       1.2774914626      2.1229657799      0.1972691358
H      -1.1809397962      2.0882029963     -0.4381887763
H      -0.8751548777      1.4531506804      1.1599301181
H      -1.5724063405     -0.1299443226     -1.3648496720
H      -2.4819363359     -0.0377530491      0.1232271305
H      -1.2047431508     -2.2331152668     -0.2311045416
H      -0.9182446892     -1.4564426580      1.3097583384
H       1.2471626274     -2.2217109456      0.4757384631
H       0.9640058243     -1.5315835950     -1.1072213651
18
step 45  E = -15.33331577 Ha  |g|max = 0.000754
C       1.5168167536     -0.0485595637      0.4064050535
C       0.8171704006      1.2309448355     -0.2071298586
C      -0.7336100086      1.2668820429      0.1055116257
C      -1.4806103967     -0.0715179904     -0.2903963392
C      -0.7551381170     -1.3717282365      0.2457215912
C       0.8002335076     -1.3851803628     -0.0476406283
H       1.5046227131      0.0177971060      1.4861590171
H       2.5512988999     -0.0774874295      0.0878347105
H       0.9702680020      1.2367333804     -1.2770896889
H       1.2787295901      2.1230219135      0.1969056070
H      -1.1805016842      2.0899994593     -0.4353706649
H      -0.8755912369      1.4504102060      1.1616699934
H      -1.5668086400     -0.1295209220     -1.3669798040
H      -2.4824458792     -0.0385241757      0.1173564004
H      -1.2044434531     -2.2354373773     -0.2254917592
H      -0.9192758017     -1.4524995493      1.3118313681
H       1.2473508904     -2.2227093791      0.4724444932
H       0.9628776271     -1.5286404525     -1.1074261748
18
step 1  E = -15.33332288 Ha  |g|max = 0.000745
C       1.5173387727     -0.0491736084      0.4067728088
C       0.8175174481      1.2303763387     -0.2067967936
C      -0.7332536925      1.2672021159      0.1055905684
C      -1.4799941090     -0.0703932622     -0.2909210658
C      -0.7552233485     -1.3714784280      0.2458045587
C       0.8007795232     -1.3844824229     -0.0473237128
H       1.5043540915      0.0177051158      1.4859037686
H       2.5506795812     -0.0772468827      0.0877100194
H       0.9696453809      1.2369155307     -1.2780980089
H       1.2786658640      2.1223142066      0.1974221161
H      -1.1811640388      2.0905453247     -0.4357536389
H      -0.8756708117      1.4504732735      1.1621366670
H      -1.5660578800     -0.1293338163     -1.3672085107
H      -2.4828374573     -0.0390241354      0.1173741258
H      -1.2048953262     -2.2364483471     -0.2252293793
H      -0.9187075204     -1.4526949906      1.3118912151
H       1.2473280687     -2.2223882266      0.4724436859
H       0.9624386187     -1.5288842820     -1.1074034807
18
step 2  E = -15.33332825 Ha  |g|max = 0.000557
C       1.5173390711     -0.0491832929      0.4069776682
C       0.8179956237      1.2295490509     -0.2075572106
C      -0.7330650671      1.2686470841      0.1058395244
C      -1.4801805875     -0.0698712453     -0.2908120231
C      -0.7552232505     -1.3714504363      0.2452760739
C       0.8007032358     -1.3844988135     -0.0473472027
H       1.5040138808      0.0175040251      1.4860797989
H       2.5506186259     -0.0769387969      0.0873405325
H       0.9685263933      1.2371534923     -1.2785710087
H       1.2787720483      2.1211934278      0.1983779014
H      -1.1817721878      2.0909859616     -0.4359581539
H      -0.8757517964      1.4505594480      1.1625495923
H      -1.5646849194     -0.1288547414     -1.3678947073
H      -2.4824838358     -0.0396804704      0.1168483334
H      -1.2051858117     -2.2372170174     -0.2243681144
H      -0.9178128400     -1.4528891151      1.3120895276
H       1.2473719869     -2.2218892141      0.4725236659
H       0.9617625909     -1.5291358447     -1.1070792523
18
step 3  E = -15.33333365 Ha  |g|max = 0.000649
C       1.5168499784     -0.0492703006      0.4063775623
C       0.8173095264      1.2299730517     -0.2079597248
C      -0.7332725105      1.2691154310      0.1059976164
C      -1.4794597521     -0.0697530173     -0.2912789575
C      -0.7553978795     -1.3716408971      0.2454988552
C       0.7999059282     -1.3849241310     -0.0475559199
H       1.5035785190      0.0172988738      1.4867076779
H       2.5510325028     -0.0766216074      0.0868863551
H       0.9671294340      1.2373712470     -1.2791602239
H       1.2792158798      2.1192492306      0.1994153373
H      -1.1822760818      2.0917974171     -0.4359849924
H      -0.8756791683      1.4510372637      1.1629383838
H      -1.5625726797     -0.1278295945     -1.3681811269
H      -2.4823212312     -0.0403920909      0.1159297395
H      -1.2052706927     -2.2375205204     -0.2229017273
H      -0.9164220204     -1.4529081166      1.3116592096
H       1.2475668582     -2.2215375059      0.4728796666
H       0.9610265427     -1.5294612339     -1.1069527818
18
step 4  E = -15.33333858 Ha  |g|max = 0.000535
C       1.5164331152     -0.0493834546      0.4062106249
C       0.8158324849      1.2296238025     -0.2080010514
C      -0.7344317850      1.2690886794      0.1061932884
C      -1.4786373861     -0.0700817868     -0.2912746634
C      -0.7552536545     -1.3713538624      0.2455606093
C       0.7997760672     -1.3852482821     -0.0474406891
H       1.5030603778      0.0170644595      1.4857469310
H       2.5505612104     -0.0763737086      0.0866674301
H       0.9656652088      1.2378122872     -1.2796166583
H       1.2803921741      2.1180962254      0.2005818244
H      -1.1824227007      2.0923250571     -0.4354204430
H      -0.8754813721      1.4518187133      1.1629628363
H      -1.5599247042     -0.1265249603     -1.3685508840
H      -2.4819574855     -0.0409721476      0.1142326638
H      -1.2055980348     -2.2378422967     -0.2213675618
H      -0.9150659739     -1.4525979049      1.3120566165
H       1.2476855348     -2.2214099156      0.4733333831
H       0.9603100671     -1.5300574083     -1.1075593032
18
step 5  E = -15.33334338 Ha  |g|max = 0.000707
C       1.5155916122     -0.0496605505      0.4049790263
C       0.8154385214      1.2295391714     -0.2076665451
C      -0.7352697440      1.2692494290      0.1069300827
C      -1.4785629660     -0.0701494329     -0.2917816478
C      -0.7545626330     -1.3716693828      0.2463921357
C       0.8004970439     -1.3855368065     -0.0482411726
H       1.5024266358      0.0168999771      1.4846010380
H       2.5493858733     -0.0760894071      0.0865432870
H       0.9639738508      1.2384245509     -1.2793848234
H       1.2812270371      2.1167051910      0.2012869840
H      -1.1826813123      2.0926315153     -0.4346008794
H      -0.8754694293      1.4527604840      1.1630373088
H      -1.5567111950     -0.1252054703     -1.3688247872
H      -2.4817576340     -0.0416095606      0.1118466316
H      -1.2061165067     -2.2380707519     -0.2198004972
H      -0.9137838587     -1.4517917272      1.3129742461
H       1.2477217670     -2.2216107534      0.4738570080
H       0.9595960680     -1.5308329826     -1.1078324361
18
step 6  E = -15.33334860 Ha  |g|max = 0.000492
C       1.5145211352     -0.0499515186      0.4036841985
C       0.8149367784      1.2296604428     -0.2074801175
C      -0.7347303509      1.2695456624      0.1076415102
C      -1.4773192765     -0.0703276527     -0.2918868743
C      -0.7538102755     -1.3717384941      0.2471191247
C       0.8006619325     -1.3867614394     -0.0487933928
H       1.5014734314      0.0166459033      1.4830656513
H       2.5482871092     -0.0757006248      0.0860386328
H       0.9619932620      1.2393462586     -1.2785157659
H       1.2818562522      2.1154737069      0.2017771012
H      -1.1832714695      2.0928598530     -0.4336242659
H      -0.8759663595      1.4538724577      1.1641056062
H      -1.5527390341     -0.1240401812     -1.3697623489
H      -2.4828503977     -0.0424245845      0.1087521231
H      -1.2066671480     -2.2381976669     -0.2178475364
H      -0.9123710295     -1.4503483629      1.3146281228
H       1.2478173477     -2.2218221937      0.4740704464
H       0.9591212051     -1.5321080779     -1.1086572481
18
step 7  E = -15.33335500 Ha  |g|max = 0.000581
C       1.5138817882     -0.0509556620      0.4028160781
C       0.8144188434      1.2296659969     -0.2069557179
C      -0.7348549871      1.2705604354      0.1098652598
C      -1.4761309493     -0.0699629605     -0.2920565955
C      -0.7542174596     -1.3716696547      0.2488395831
C       0.7996016629     -1.3879351928     -0.0496277999
H       1.4999756569      0.0161664822      1.4815985447
H       2.5479675198     -0.0752247680      0.0845954019
H       0.9601457776      1.2407437903     -1.2785375964
H       1.2824655105      2.1155499106      0.2022737074
H      -1.1839175729      2.0924921319     -0.4324512808
H      -0.8768052532      1.4546540027      1.1655735939
H      -1.5476921200     -0.1235414445     -1.3705608078
H      -2.4837332669     -0.0434262277      0.1041632353
H      -1.2071758605     -2.2381249142     -0.2151994458
H      -0.9105800151     -1.4479510515      1.3158742241
H       1.2485297904     -2.2227384979      0.4739576221
H       0.9590640219     -1.5343188942     -1.1098530284
18
step 8  E = -15.33336043 Ha  |g|max = 0.000434
C       1.5138183234     -0.0517529226      0.4013609264
C       0.8142780934      1.2302259909     -0.2064287018
C      -0.7355933026      1.2706140486      0.1113267077
C      -1.4756340481     -0.0693985339     -0.2923041573
C      -0.7546290255     -1.3709937560      0.2493812841
C       0.7994523312     -1.3892163786     -0.0502788959
H       1.4986831252      0.0154909412      1.4811285332
H       2.5477132734     -0.0750221516      0.0831788882
H       0.9586954027      1.2420024826     -1.2786704573
H       1.2827651069      2.1158405356      0.2025355990
H      -1.1845033942      2.0922763346     -0.4314301630
H      -0.8776591779      1.4551563125      1.1676704800
H      -1.5429599035     -0.1235007926     -1.3707075800
H      -2.4839609716     -0.0441422436      0.0996902436
H      -1.2079783306     -2.2382378898     -0.2126433601
H      -0.9092280131     -1.4456925249      1.3175827117
H       1.2488616903     -2.2232330917      0.4732362326
H       0.9588218835     -1.5364328848     -1.1103133029
18
step 9  E = -15.33336384 Ha  |g|max = 0.000558
C       1.5137408689     -0.0515777599      0.4010773265
C       0.8137483023      1.2304909981     -0.2067087295
C      -0.7358242296      1.2704646279      0.1123546278
C      -1.4750655879     -0.0695408086     -0.2929513649
C      -0.7541242026     -1.3704383102      0.2499379164
C       0.7997558173     -1.3892238435     -0.0508443545
H       1.4982374863      0.0145774555      1.4804765324
H       2.5478233681     -0.0752626043      0.0821860825
H       0.9578847456      1.2428636314     -1.2782863054
H       1.2827663242      2.1162692307      0.2026947769
H      -1.1849512946      2.0923929745     -0.4307029294
H      -0.8782322357      1.4550081335      1.1689664080
H      -1.5397463943     -0.1237347734     -1.3706999610
H      -2.4844940255     -0.0442609524      0.0968799656
H      -1.2091028774     -2.2384413115     -0.2107938783
H      -0.9085856080     -1.4440570599      1.3183435487
H       1.2487866180     -2.2236250329      0.4725009900
H       0.9583259701     -1.5379211237     -1.1101156559
18
step 10  E = -15.33336791 Ha  |g|max = 0.000369
C       1.5140187507     -0.0509942014      0.4001859820
C       0.8131538421      1.2310920210     -0.2060611064
C      -0.7362567374      1.2706804428      0.1133432926
C      -1.4742877547     -0.0698890239     -0.2930735769
C      -0.7534931728     -1.3705898034      0.2506693861
C       0.8000836630     -1.3887217509     -0.0507841617
H       1.4981415588      0.0131542948      1.4797980388
H       2.5477929614     -0.0757421464      0.0811529446
H       0.9569980739      1.2439261900     -1.2781854808
H       1.2822771335      2.1165469446      0.2026428334
H      -1.1854218002      2.0924195529     -0.4293691983
H      -0.8788431139      1.4542073899      1.1701446943
H      -1.5356179137     -0.1242493373     -1.3716088727
H      -2.4852201407     -0.0441979102      0.0933205721
H      -1.2105493910     -2.2381538854     -0.2079510869
H      -0.9078396586     -1.4417611837      1.3188812320
H       1.2484808637     -2.2240266337      0.4714624866
H       0.9575258576     -1.5397174939     -1.1102529717
18
step 11  E = -15.33337252 Ha  |g|max = 0.000819
C       1.5144596571     -0.0510707389      0.3993293463
C       0.8129945303      1.2317869499     -0.2056281516
C      -0.7369051386      1.2702590602      0.1142802862
C      -1.4735028670     -0.0699456034     -0.2941677732
C      -0.7541910180     -1.3700816058      0.2520463922
C       0.7993158983     -1.3895319332     -0.0515719414
H       1.4996807758      0.0115575393      1.4791066383
H       2.5479574545     -0.0760153343      0.0803258360
H       0.9558829857      1.2450369717     -1.2775460148
H       1.2810842469      2.1174196217      0.2028329285
H      -1.1862251724      2.0928284058     -0.4271276286
H      -0.8792305850      1.4519365850      1.1702379869
H      -1.5307654588     -0.1251371354     -1.3731394357
H      -2.4854346485     -0.0441048341      0.0892688740
H      -1.2117907884     -2.2376818452     -0.2041606817
H      -0.9069023753     -1.4389923656      1.3198131565
H       1.2483318074     -2.2238221187      0.4710086424
H       0.9561836866     -1.5404581603     -1.1105934369
18
step 12  E = -15.33338091 Ha  |g|max = 0.000620
C       1.5143235944     -0.0522104021      0.3977645953
C       0.8120877975      1.2322181243     -0.2045526861
C      -0.7370168762      1.2693975576      0.1143329344
C      -1.4723761882     -0.0701230927     -0.2970763788
C      -0.7546980453     -1.3683261282      0.2539891308
C       0.7976229452     -1.3897786461     -0.0522572370
H       1.5030306276      0.0088230146      1.4778026765
H       2.5486183857     -0.0764042747      0.0786220093
H       0.9539282670      1.2470279930     -1.2766107103
H       1.2790156876      2.1195454536      0.2035867033
H      -1.1878130752      2.0936428920     -0.4227651128
H      -0.8800196412      1.4474707237      1.1714981184
H      -1.5220304879     -0.1267650798     -1.3757599999
H      -2.4857696627     -0.0439626943      0.0817847401
H      -1.2143888028     -2.2376024526     -0.1974726360
H      -0.9053497613     -1.4338953404      1.3227744663
H       1.2482438458     -2.2236621317      0.4706328557
H       0.9535343223     -1.5414120701     -1.1119784145
18
step 13  E = -15.33338666 Ha  |g|max = 0.000609
C       1.5148369966     -0.0525359259      0.3969554504
C       0.8124191646      1.2322993682     -0.2037789244
C      -0.7374163186      1.2690426972      0.1152008378
C      -1.4715038808     -0.0700605325     -0.2997192587
C      -0.7548593877     -1.3677877617      0.2559960004
C       0.7980605223     -1.3894021470     -0.0526532631
H       1.5056238986      0.0071495899      1.4766146552
H       2.5479614795     -0.0767980597      0.0766492182
H       0.9528682193      1.2483210627     -1.2762661828
H       1.2773677597      2.1202000162      0.2046300889
H      -1.1890276552      2.0946203164     -0.4198051156
H      -0.8804453017      1.4433718785      1.1728779399
H      -1.5162489247     -0.1280049543     -1.3786062669
H      -2.4864451448     -0.0438830705      0.0755992497
H      -1.2164907017     -2.2382770585     -0.1927171520
H      -0.9043414942     -1.4294265676      1.3258145803
H       1.2476696925     -2.2233843527      0.4703674561
H       0.9509139622     -1.5414610630     -1.1128442339
18
step 14  E = -15.33339287 Ha  |g|max = 0.000727
C       1.5156363758     -0.0518139135      0.3962021572
C       0.8114798751      1.2326483249     -0.2036626071
C      -0.7375185204      1.2687105518      0.1161774061
C      -1.4704176507     -0.0709312180     -0.3018948568
C      -0.7547315992     -1.3674454207      0.2582428804
C       0.7968847100     -1.3895224502     -0.0529644563
H       1.5082595662      0.0059744887      1.4760508278
H       2.5476131394     -0.0772906084      0.0733287458
H       0.9523961165      1.2494208389     -1.2757014759
H       1.2762456827      2.1201034279      0.2064390576
H      -1.1898458286      2.0956361028     -0.4165838263
H      -0.8807817170      1.4384625919      1.1749104796
H      -1.5108924285     -0.1291909457     -1.3823116289
H      -2.4872602636     -0.0438555855      0.0680336054
H      -1.2179858403     -2.2388398798     -0.1872355278
H      -0.9032807388     -1.4239515349      1.3285655946
H       1.2472129845     -2.2233016859      0.4700084118
H       0.9479289710     -1.5408296613     -1.1132896797
18
step 15  E = -15.33340133 Ha  |g|max = 0.000738
C       1.5153541701     -0.0519124894      0.3946826772
C       0.8104742460      1.2336191549     -0.2028261068
C      -0.7387095602      1.2673212889      0.1175932136
C      -1.4687254474     -0.0719681448     -0.3062686884
C      -0.7555760967     -1.3665307160      0.2612765355
C       0.7955862489     -1.3889861379     -0.0523879059
H       1.5119258162      0.0050815332      1.4755802267
H       2.5477407040     -0.0778342580      0.0677626779
H       0.9521675121      1.2508759075     -1.2752236457
H       1.2750495662      2.1193601276      0.2091333370
H      -1.1905730695      2.0967807966     -0.4117305888
H      -0.8809964061      1.4314262371      1.1776444175
H      -1.5036553512     -0.1307516148     -1.3861338605
H      -2.4884415038     -0.0440430445      0.0569606452
H      -1.2193658386     -2.2395560243     -0.1790120684
H      -0.9017401051     -1.4159617137      1.3319033281
H       1.2467135102     -2.2232880515      0.4691468818
H       0.9437143645     -1.5396494469     -1.1137859283
18
step 16  E = -15.33341019 Ha  |g|max = 0.000845
C       1.5161212555     -0.0525469650      0.3937181552
C       0.8097153998      1.2332388165     -0.2018569453
C      -0.7400114747      1.2653347353      0.1187046101
C      -1.4686237726     -0.0722012073     -0.3100014693
C      -0.7566149790     -1.3642012012      0.2633347393
C       0.7943950483     -1.3887387660     -0.0520172337
H       1.5152817853      0.0051715219      1.4740146777
H       2.5463077684     -0.0780804519      0.0625074395
H       0.9521465301      1.2524498375     -1.2744180543
H       1.2747319311      2.1190659460      0.2119723518
H      -1.1911017519      2.0973194386     -0.4066745886
H      -0.8810851877      1.4249157827      1.1794663682
H      -1.4968597089     -0.1322006279     -1.3891486865
H      -2.4889862918     -0.0446607882      0.0463343130
H      -1.2201702203     -2.2408450533     -0.1710535359
H      -0.9006581655     -1.4084425165      1.3348194632
H       1.2464735110     -2.2232874154      0.4678917015
H       0.9398810136     -1.5383076992     -1.1132781202
18
step 17  E = -15.33341660 Ha  |g|max = 0.000482
C       1.5161601481     -0.0528409866      0.3925573383
C       0.8098472849      1.2326764324     -0.2006578323
C      -0.7393998929      1.2641866753      0.1193075684
C      -1.4681479667     -0.0722360062     -0.3122384879
C      -0.7570437838     -1.3629660598      0.2649183441
C       0.7930118098     -1.3884345261     -0.0513866554
H       1.5179882126      0.0061085630      1.4724930975
H       2.5448749117     -0.0781348246      0.0585838022
H       0.9521232145      1.2538527351     -1.2729215618
H       1.2744456476      2.1180669330      0.2138113230
H      -1.1917213724      2.0974159019     -0.4026016571
H      -0.8812934098      1.4202197167      1.1801889029
H      -1.4917051222     -0.1331748875     -1.3922257060
H      -2.4914253520     -0.0455033784      0.0393206118
H      -1.2201824081     -2.2416426464     -0.1647845292
H      -0.9004416044     -1.4026086201      1.3361829826
H       1.2463423851     -2.2236608616      0.4666511873
H       0.9375099377     -1.5373407868     -1.1128835147
18
step 18  E = -15.33341795 Ha  |g|max = 0.000281
C       1.5159681171     -0.0529930092      0.3924045054
C       0.8099383185      1.2329549645     -0.2006260198
C      -0.7393326802      1.2640056403      0.1195350311
C      -1.4685827895     -0.0725346411     -0.3131425828
C      -0.7572196150     -1.3628045940      0.2653882755
C       0.7930462602     -1.3885751940     -0.0513815769
H       1.5187965901      0.0065887715      1.4722224321
H       2.5448135729     -0.0782096768      0.0575466576
H       0.9521651176      1.2542622278     -1.2724117376
H       1.2744652965      2.1176408187      0.2143065404
H      -1.1918713238      2.0974588805     -0.4016749125
H      -0.8813262742      1.4192037623      1.1803720983
H      -1.4903744628     -0.1332855619     -1.3927544573
H      -2.4919719190     -0.0457489731      0.0378335900
H      -1.2201615113     -2.2419146174     -0.1633322476
H      -0.9006751497     -1.4011089576      1.3365737899
H       1.2461776482     -2.2238089835      0.4662840053
H       0.9370874317     -1.5371474870     -1.1128281707
18
step 19  E = -15.33341960 Ha  |g|max = 0.000257
C       1.5163311067     -0.0529186045      0.3919982249
C       0.8095871066      1.2330929313     -0.2004294169
C      -0.7399400172      1.2633742520      0.1194908528
C      -1.4690326343     -0.0729718884     -0.3138474508
C      -0.7574120321     -1.3626198794      0.2656964372
C       0.7929274266     -1.3887858406     -0.0514609669
H       1.5200601227      0.0075732125      1.4722075781
H       2.5447458832     -0.0784443589      0.0563121590
H       0.9524252507      1.2549962292     -1.2722619548
H       1.2749485781      2.1173412063      0.2152706737
H      -1.1920889060      2.0976826480     -0.4006962594
H      -0.8813165677      1.4181770437      1.1808720395
H      -1.4887099647     -0.1332634447     -1.3936422278
H      -2.4926742938     -0.0461258368      0.0362979036
H      -1.2202163346     -2.2425981779     -0.1616820500
H      -0.9015071832     -1.3990731889      1.3373832317
H       1.2459094242     -2.2244069227      0.4658979492
H       0.9369056473     -1.5370460144     -1.1130914943
18
step 20  E = -15.33342009 Ha  |g|max = 0.000136
C       1.5164072227     -0.0529068292      0.3920518089
C       0.8095143473      1.2330199563     -0.2003557807
C      -0.7401862135      1.2632729533      0.1197488100
C      -1.4689113594     -0.0730569203     -0.3140626552
C      -0.7575556013     -1.3626626498      0.2660017519
C       0.7928431010     -1.3886914373     -0.0514040033
H       1.5205643917      0.0079230343      1.4720043677
H       2.5448210789     -0.0785313313      0.0559069117
H       0.9525360823      1.2553388900     -1.2723193803
H       1.2750550862      2.1172267470      0.2156381914
H      -1.1922307264      2.0977647260     -0.4004892056
H      -0.8813182693      1.4178645932      1.1808644091
H      -1.4883016043     -0.1332412583     -1.3939237325
H      -2.4929209756     -0.0463049398      0.0358674107
H      -1.2202625432     -2.2428647514     -0.1611908832
H      -0.9018331920     -1.3984105919      1.3374043945
H       1.2457888295     -2.2246849556      0.4657856671
H       0.9369329533     -1.5370718706     -1.1132128508
18
step 21  E = -15.33342057 Ha  |g|max = 0.000211
C       1.5166146403     -0.0529792050      0.3918878598
C       0.8095364695      1.2330300967     -0.2002774040
C      -0.7400951414      1.2635152764      0.1198130290
C      -1.4688250627     -0.0731141730     -0.3141355899
C      -0.7577249938     -1.3628163666      0.2660471945
C       0.7927331369     -1.3887234673     -0.0511314033
H       1.5213688582      0.0083597096      1.4717280202
H       2.5448933679     -0.0786371008      0.0554924279
H       0.9526352160      1.2559362955     -1.2723206345
H       1.2748828175      2.1168531067      0.2160994155
H      -1.1925205196      2.0976983628     -0.4003482024
H      -0.8814632429      1.4176004220      1.1810310099
H      -1.4880792949     -0.1331931464     -1.3941253907
H      -2.4928026507     -0.0466612020      0.0352973345
H      -1.2203626770     -2.2431699656     -0.1606162020
H      -0.9023475250     -1.3976972627      1.3373785903
H       1.2454676185     -2.2249015742      0.4655636131
H       0.9370315854     -1.5371164434     -1.1130684335
18
step 22  E = -15.33342089 Ha  |g|max = 0.000091
C       1.5167153789     -0.0530102106      0.3916710732
C       0.8095740137      1.2329778054     -0.2003719100
C      -0.7400637723      1.2634097561      0.1198320606
C      -1.4686102472     -0.0730604171     -0.3143425033
C      -0.7577673333     -1.3627323227      0.2660102340
C       0.7926365119     -1.3887979682     -0.0511188530
H       1.5220019540      0.0086455080      1.4715972742
H       2.5449656512     -0.0787262451      0.0551641618
H       0.9526825420      1.2564180709     -1.2722037823
H       1.2747606016      2.1166781263      0.2165104128
H      -1.1927632380      2.0976855209     -0.4003201938
H      -0.8815865408      1.4174967260      1.1811630018
H      -1.4879938822     -0.1331455085     -1.3941231794
H      -2.4927085105     -0.0469203789      0.0349529946
H      -1.2204954038     -2.2434367068     -0.1602712101
H      -0.9027274150     -1.3972755101      1.3374013639
H       1.2452541684     -2.2250978603      0.4655028709
H       0.9370681198     -1.5371250237     -1.1127385792
