18
cyclohexane_t optimised (CG)  E = -15.33342089 Ha  |g|max = 0.000091
C       1.5167153789     -0.0530102106      0.3916710732
C       0.8095740137      1.2329778054     -0.2003719100
C      -0.7400637723      1.2634097561      0.1198320606
C      -1.4686102472     -0.0730604171     -0.3143425033
C      -0.7577673333     -1.3627323227      0.2660102340
C       0.7926365119     -1.3887979682     -0.0511188530
H       1.5220019540      0.0086455080      1.4715972742
H       2.5449656512     -0.0787262451      0.0551641618
H       0.9526825420      1.2564180709     -1.2722037823
H       1.2747606016      2.1166781263      0.2165104128
H      -1.1927632380      2.0976855209     -0.4003201938
H      -0.8815865408      1.4174967260      1.1811630018
H      -1.4879938822     -0.1331455085     -1.3941231794
H      -2.4927085105     -0.0469203789      0.0349529946
H      -1.2204954038     -2.2434367068     -0.1602712101
H      -0.9027274150     -1.3972755101      1.3374013639
H       1.2452541684     -2.2250978603      0.4655028709
H       0.9370681198     -1.5371250237     -1.1127385792
