6
step 0  E = -5.00836727 Ha
C      -0.6650000000      0.0000000000      0.0000000000
C       0.6650000000      0.0000000000      0.0000000000
H      -1.2280000000      0.9290000000      0.0000000000
H      -1.2280000000     -0.9290000000      0.0000000000
H       1.2280000000      0.9290000000      0.0000000000
H       1.2280000000     -0.9290000000      0.0000000000
6
step 1  E = -5.00947533 Ha  |g|max = 0.002526
C      -0.6793038875     -0.0000000000      0.0000000000
C       0.6793038875     -0.0000000000     -0.0000000000
H      -1.2270069587      0.9260597869      0.0000000000
H      -1.2270069587     -0.9260597869     -0.0000000000
H       1.2270069587      0.9260597869      0.0000000000
H       1.2270069587     -0.9260597869      0.0000000000
6
step 2  E = -5.00959605 Ha  |g|max = 0.002249
C      -0.6781351226      0.0000000000      0.0000000000
C       0.6781351226      0.0000000000      0.0000000000
H      -1.2318884498      0.9172874680      0.0000000000
H      -1.2318884498     -0.9172874680     -0.0000000000
H       1.2318884498      0.9172874680     -0.0000000000
H       1.2318884498     -0.9172874680     -0.0000000000
6
step 3  E = -5.00962566 Ha  |g|max = 0.004057
C      -0.6767127945      0.0000000000      0.0000000000
C       0.6767127945     -0.0000000000      0.0000000000
H      -1.2350283611      0.9171190499      0.0000000000
H      -1.2350283611     -0.9171190499     -0.0000000000
H       1.2350283611      0.9171190499     -0.0000000000
H       1.2350283611     -0.9171190499     -0.0000000000
6
step 4  E = -5.00966454 Ha  |g|max = 0.000512
C      -0.6793307758     -0.0000000000      0.0000000000
C       0.6793307758      0.0000000000      0.0000000000
H      -1.2403513953      0.9170860423      0.0000000000
H      -1.2403513953     -0.9170860423     -0.0000000000
H       1.2403513953      0.9170860423      0.0000000000
H       1.2403513953     -0.9170860423     -0.0000000000
6
step 5  E = -5.00966716 Ha  |g|max = 0.000399
C      -0.6793361190      0.0000000000      0.0000000000
C       0.6793361190     -0.0000000000      0.0000000000
H      -1.2413469066      0.9157651966     -0.0000000000
H      -1.2413469066     -0.9157651966     -0.0000000000
H       1.2413469066      0.9157651966      0.0000000000
H       1.2413469066     -0.9157651966     -0.0000000000
6
step 6  E = -5.00966729 Ha  |g|max = 0.000014
C      -0.6791816409      0.0000000000      0.0000000000
C       0.6791816409     -0.0000000000      0.0000000000
H      -1.2414036694      0.9157323811     -0.0000000000
H      -1.2414036694     -0.9157323811     -0.0000000000
H       1.2414036694      0.9157323811      0.0000000000
H       1.2414036694     -0.9157323811     -0.0000000000
