18
naphthalene optimised (CG)  E = -20.50225279 Ha  |g|max = 0.000092
C      -2.5181453538      0.7350324808     -0.0000000000
C      -2.5181453538     -0.7350324808     -0.0000000000
C       0.0000000000      0.7386298223     -0.0000000000
C       0.0000000000     -0.7386298223     -0.0000000000
C      -1.2929722624      1.4539098536      0.0000000000
C      -1.2929722624     -1.4539098536      0.0000000000
C       2.5181453538      0.7350324808      0.0000000000
C       2.5181453538     -0.7350324808     -0.0000000000
C       1.2929722624      1.4539098536     -0.0000000000
C       1.2929722624     -1.4539098536      0.0000000000
H      -3.4537196024      1.2608048426      0.0000000000
H      -3.4537196024     -1.2608048426     -0.0000000000
H      -1.3012742355      2.5274251574     -0.0000000000
H      -1.3012742355     -2.5274251574      0.0000000000
H       3.4537196024      1.2608048426     -0.0000000000
H       3.4537196024     -1.2608048426     -0.0000000000
H       1.3012742355      2.5274251574      0.0000000000
H       1.3012742355     -2.5274251574      0.0000000000
