18
naphthalene: linear acene, 2 rings, ideal a=1.40 A planar
C    -2.4248711306     0.7000000000     0.0000000000
C    -2.4248711306    -0.7000000000     0.0000000000
C     0.0000000000     0.7000000000     0.0000000000
C     0.0000000000    -0.7000000000     0.0000000000
C    -1.2124355653     1.4000000000     0.0000000000
C    -1.2124355653    -1.4000000000     0.0000000000
C     2.4248711306     0.7000000000     0.0000000000
C     2.4248711306    -0.7000000000     0.0000000000
C     1.2124355653     1.4000000000     0.0000000000
C     1.2124355653    -1.4000000000     0.0000000000
H    -3.3688388207     1.2450000000     0.0000000000
H    -3.3688388207    -1.2450000000     0.0000000000
H    -1.2124355653     2.4900000000     0.0000000000
H    -1.2124355653    -2.4900000000     0.0000000000
H     3.3688388207     1.2450000000     0.0000000000
H     3.3688388207    -1.2450000000     0.0000000000
H     1.2124355653     2.4900000000     0.0000000000
H     1.2124355653    -2.4900000000     0.0000000000
