18
step 0  E = -20.46262264 Ha
C      -2.4248711306      0.7000000000      0.0000000000
C      -2.4248711306     -0.7000000000      0.0000000000
C       0.0000000000      0.7000000000      0.0000000000
C       0.0000000000     -0.7000000000      0.0000000000
C      -1.2124355653      1.4000000000      0.0000000000
C      -1.2124355653     -1.4000000000      0.0000000000
C       2.4248711306      0.7000000000      0.0000000000
C       2.4248711306     -0.7000000000      0.0000000000
C       1.2124355653      1.4000000000      0.0000000000
C       1.2124355653     -1.4000000000      0.0000000000
H      -3.3688388207      1.2450000000      0.0000000000
H      -3.3688388207     -1.2450000000      0.0000000000
H      -1.2124355653      2.4900000000      0.0000000000
H      -1.2124355653     -2.4900000000      0.0000000000
H       3.3688388207      1.2450000000      0.0000000000
H       3.3688388207     -1.2450000000      0.0000000000
H       1.2124355653      2.4900000000      0.0000000000
H       1.2124355653     -2.4900000000      0.0000000000
18
step 1  E = -20.48592805 Ha  |g|max = 0.022619
C      -2.4483596918      0.7324126678     -0.0000000000
C      -2.4483596918     -0.7324126678     -0.0000000000
C       0.0000000000      0.7154057780     -0.0000000000
C      -0.0000000000     -0.7154057780      0.0000000000
C      -1.2385954543      1.4366580022     -0.0000000000
C      -1.2385954543     -1.4366580022      0.0000000000
C       2.4483596918      0.7324126678     -0.0000000000
C       2.4483596918     -0.7324126678      0.0000000000
C       1.2385954543      1.4366580022      0.0000000000
C       1.2385954543     -1.4366580022      0.0000000000
H      -3.3629249283      1.2414362109      0.0000000000
H      -3.3629249283     -1.2414362109      0.0000000000
H      -1.2125713417      2.4829464952     -0.0000000000
H      -1.2125713417     -2.4829464952      0.0000000000
H       3.3629249283      1.2414362109     -0.0000000000
H       3.3629249283     -1.2414362109     -0.0000000000
H       1.2125713417      2.4829464952     -0.0000000000
H       1.2125713417     -2.4829464952     -0.0000000000
18
step 2  E = -20.49388338 Ha  |g|max = 0.024055
C      -2.4592504623      0.7273372353      0.0000000000
C      -2.4592504623     -0.7273372353     -0.0000000000
C      -0.0000000000      0.7346217264      0.0000000000
C       0.0000000000     -0.7346217264      0.0000000000
C      -1.2731852057      1.4529646892     -0.0000000000
C      -1.2731852057     -1.4529646892     -0.0000000000
C       2.4592504623      0.7273372353     -0.0000000000
C       2.4592504623     -0.7273372353      0.0000000000
C       1.2731852057      1.4529646892     -0.0000000000
C       1.2731852057     -1.4529646892      0.0000000000
H      -3.3879386403      1.2550361369      0.0000000000
H      -3.3879386403     -1.2550361369     -0.0000000000
H      -1.2154559221      2.5114745805     -0.0000000000
H      -1.2154559221     -2.5114745805      0.0000000000
H       3.3879386403      1.2550361369     -0.0000000000
H       3.3879386403     -1.2550361369     -0.0000000000
H       1.2154559221      2.5114745805      0.0000000000
H       1.2154559221     -2.5114745805      0.0000000000
18
step 3  E = -20.49912025 Ha  |g|max = 0.010276
C      -2.4936710919      0.7323615798      0.0000000000
C      -2.4936710919     -0.7323615798     -0.0000000000
C      -0.0000000000      0.7375548167      0.0000000000
C      -0.0000000000     -0.7375548167      0.0000000000
C      -1.2756265983      1.4682225148     -0.0000000000
C      -1.2756265983     -1.4682225148      0.0000000000
C       2.4936710919      0.7323615798     -0.0000000000
C       2.4936710919     -0.7323615798     -0.0000000000
C       1.2756265983      1.4682225148     -0.0000000000
C       1.2756265983     -1.4682225148      0.0000000000
H      -3.4116808065      1.2644025707      0.0000000000
H      -3.4116808065     -1.2644025707     -0.0000000000
H      -1.2254547926      2.5435245731     -0.0000000000
H      -1.2254547926     -2.5435245731      0.0000000000
H       3.4116808065      1.2644025707     -0.0000000000
H       3.4116808065     -1.2644025707     -0.0000000000
H       1.2254547926      2.5435245731      0.0000000000
H       1.2254547926     -2.5435245731      0.0000000000
18
step 4  E = -20.50017605 Ha  |g|max = 0.005940
C      -2.4938734803      0.7400636151      0.0000000000
C      -2.4938734803     -0.7400636151     -0.0000000000
C      -0.0000000000      0.7382352384      0.0000000000
C       0.0000000000     -0.7382352384     -0.0000000000
C      -1.2745003497      1.4669518826     -0.0000000000
C      -1.2745003497     -1.4669518826      0.0000000000
C       2.4938734803      0.7400636151     -0.0000000000
C       2.4938734803     -0.7400636151     -0.0000000000
C       1.2745003497      1.4669518826     -0.0000000000
C       1.2745003497     -1.4669518826      0.0000000000
H      -3.4282630573      1.2691711425      0.0000000000
H      -3.4282630573     -1.2691711425     -0.0000000000
H      -1.2347178683      2.5475227577     -0.0000000000
H      -1.2347178683     -2.5475227577      0.0000000000
H       3.4282630573      1.2691711425     -0.0000000000
H       3.4282630573     -1.2691711425     -0.0000000000
H       1.2347178683      2.5475227577      0.0000000000
H       1.2347178683     -2.5475227577      0.0000000000
18
step 5  E = -20.50063436 Ha  |g|max = 0.007798
C      -2.4980446416      0.7400644819      0.0000000000
C      -2.4980446416     -0.7400644819     -0.0000000000
C       0.0000000000      0.7342942905      0.0000000000
C      -0.0000000000     -0.7342942905     -0.0000000000
C      -1.2760006135      1.4698382027     -0.0000000000
C      -1.2760006135     -1.4698382027      0.0000000000
C       2.4980446416      0.7400644819      0.0000000000
C       2.4980446416     -0.7400644819     -0.0000000000
C       1.2760006135      1.4698382027     -0.0000000000
C       1.2760006135     -1.4698382027      0.0000000000
H      -3.4360868063      1.2692538050      0.0000000000
H      -3.4360868063     -1.2692538050     -0.0000000000
H      -1.2449356812      2.5416557317     -0.0000000000
H      -1.2449356812     -2.5416557317      0.0000000000
H       3.4360868063      1.2692538050     -0.0000000000
H       3.4360868063     -1.2692538050     -0.0000000000
H       1.2449356812      2.5416557317      0.0000000000
H       1.2449356812     -2.5416557317      0.0000000000
18
step 6  E = -20.50204093 Ha  |g|max = 0.007145
C      -2.5178149173      0.7389273649      0.0000000000
C      -2.5178149173     -0.7389273649     -0.0000000000
C      -0.0000000000      0.7415724567      0.0000000000
C       0.0000000000     -0.7415724567      0.0000000000
C      -1.2914882202      1.4547953687     -0.0000000000
C      -1.2914882202     -1.4547953687      0.0000000000
C       2.5178149173      0.7389273649      0.0000000000
C       2.5178149173     -0.7389273649      0.0000000000
C       1.2914882202      1.4547953687      0.0000000000
C       1.2914882202     -1.4547953687      0.0000000000
H      -3.4552848086      1.2618046288      0.0000000000
H      -3.4552848086     -1.2618046288     -0.0000000000
H      -1.2875937387      2.5250762721      0.0000000000
H      -1.2875937387     -2.5250762721     -0.0000000000
H       3.4552848086      1.2618046288     -0.0000000000
H       3.4552848086     -1.2618046288     -0.0000000000
H       1.2875937387      2.5250762721     -0.0000000000
H       1.2875937387     -2.5250762721      0.0000000000
18
step 7  E = -20.50221050 Ha  |g|max = 0.001028
C      -2.5205532426      0.7349415944      0.0000000000
C      -2.5205532426     -0.7349415944     -0.0000000000
C       0.0000000000      0.7377100590      0.0000000000
C      -0.0000000000     -0.7377100590      0.0000000000
C      -1.2935994472      1.4520318169     -0.0000000000
C      -1.2935994472     -1.4520318169      0.0000000000
C       2.5205532426      0.7349415944      0.0000000000
C       2.5205532426     -0.7349415944      0.0000000000
C       1.2935994472      1.4520318169      0.0000000000
C       1.2935994472     -1.4520318169      0.0000000000
H      -3.4575710675      1.2609716269      0.0000000000
H      -3.4575710675     -1.2609716269     -0.0000000000
H      -1.2940710356      2.5246465423     -0.0000000000
H      -1.2940710356     -2.5246465423      0.0000000000
H       3.4575710675      1.2609716269     -0.0000000000
H       3.4575710675     -1.2609716269     -0.0000000000
H       1.2940710356      2.5246465423     -0.0000000000
H       1.2940710356     -2.5246465423      0.0000000000
18
step 8  E = -20.50222094 Ha  |g|max = 0.000901
C      -2.5209113731      0.7353120329      0.0000000000
C      -2.5209113731     -0.7353120329     -0.0000000000
C       0.0000000000      0.7374163124      0.0000000000
C       0.0000000000     -0.7374163124      0.0000000000
C      -1.2933808183      1.4516829911     -0.0000000000
C      -1.2933808183     -1.4516829911      0.0000000000
C       2.5209113731      0.7353120329      0.0000000000
C       2.5209113731     -0.7353120329      0.0000000000
C       1.2933808183      1.4516829911      0.0000000000
C       1.2933808183     -1.4516829911      0.0000000000
H      -3.4568205138      1.2606484930      0.0000000000
H      -3.4568205138     -1.2606484930     -0.0000000000
H      -1.2953037793      2.5253267159     -0.0000000000
H      -1.2953037793     -2.5253267159      0.0000000000
H       3.4568205138      1.2606484930     -0.0000000000
H       3.4568205138     -1.2606484930     -0.0000000000
H       1.2953037793      2.5253267159     -0.0000000000
H       1.2953037793     -2.5253267159      0.0000000000
18
step 9  E = -20.50225205 Ha  |g|max = 0.000429
C      -2.5181454575      0.7350823036     -0.0000000000
C      -2.5181454575     -0.7350823036     -0.0000000000
C      -0.0000000000      0.7383796921      0.0000000000
C      -0.0000000000     -0.7383796921     -0.0000000000
C      -1.2933054628      1.4538653866      0.0000000000
C      -1.2933054628     -1.4538653866      0.0000000000
C       2.5181454575      0.7350823036      0.0000000000
C       2.5181454575     -0.7350823036     -0.0000000000
C       1.2933054628      1.4538653866     -0.0000000000
C       1.2933054628     -1.4538653866      0.0000000000
H      -3.4538364861      1.2607409840      0.0000000000
H      -3.4538364861     -1.2607409840     -0.0000000000
H      -1.3010983324      2.5272853614     -0.0000000000
H      -1.3010983324     -2.5272853614      0.0000000000
H       3.4538364861      1.2607409840     -0.0000000000
H       3.4538364861     -1.2607409840     -0.0000000000
H       1.3010983324      2.5272853614      0.0000000000
H       1.3010983324     -2.5272853614      0.0000000000
18
step 10  E = -20.50225279 Ha  |g|max = 0.000092
C      -2.5181453538      0.7350324808     -0.0000000000
C      -2.5181453538     -0.7350324808     -0.0000000000
C       0.0000000000      0.7386298223     -0.0000000000
C       0.0000000000     -0.7386298223     -0.0000000000
C      -1.2929722624      1.4539098536      0.0000000000
C      -1.2929722624     -1.4539098536      0.0000000000
C       2.5181453538      0.7350324808      0.0000000000
C       2.5181453538     -0.7350324808     -0.0000000000
C       1.2929722624      1.4539098536     -0.0000000000
C       1.2929722624     -1.4539098536      0.0000000000
H      -3.4537196024      1.2608048426      0.0000000000
H      -3.4537196024     -1.2608048426     -0.0000000000
H      -1.3012742355      2.5274251574     -0.0000000000
H      -1.3012742355     -2.5274251574      0.0000000000
H       3.4537196024      1.2608048426     -0.0000000000
H       3.4537196024     -1.2608048426     -0.0000000000
H       1.3012742355      2.5274251574      0.0000000000
H       1.3012742355     -2.5274251574      0.0000000000
