24
step 0  E = -28.18161730 Ha
C      -3.2042939940     -0.0500000000      0.0000000000
C      -3.2042939940     -1.4500000000      0.0000000000
C      -0.7794228634     -0.0500000000      0.0000000000
C      -0.7794228634     -1.4500000000      0.0000000000
C      -1.9918584287      0.6500000000      0.0000000000
C      -1.9918584287     -2.1500000000      0.0000000000
C       1.6454482672     -0.0500000000      0.0000000000
C       1.6454482672     -1.4500000000      0.0000000000
C       0.4330127019      0.6500000000      0.0000000000
C       0.4330127019     -2.1500000000      0.0000000000
C       0.4330127019      2.0500000000      0.0000000000
C       2.8578838325      2.0500000000      0.0000000000
C       2.8578838325      0.6500000000      0.0000000000
C       1.6454482672      2.7500000000      0.0000000000
H      -4.1482616841      0.4950000000      0.0000000000
H      -4.1482616841     -1.9950000000      0.0000000000
H      -1.9918584287      1.7400000000      0.0000000000
H      -1.9918584287     -3.2400000000      0.0000000000
H       2.5894159573     -1.9950000000      0.0000000000
H       0.4330127019     -3.2400000000      0.0000000000
H      -0.5109549882      2.5950000000      0.0000000000
H       3.8018515226      2.5950000000      0.0000000000
H       3.8018515226      0.1050000000      0.0000000000
H       1.6454482672      3.8400000000      0.0000000000
24
step 1  E = -28.21322036 Ha  |g|max = 0.028840
C      -3.2321229748     -0.0208590665     -0.0000000000
C      -3.2314821444     -1.4795763124     -0.0000000000
C      -0.7968739993     -0.0475338850     -0.0000000000
C      -0.7893982657     -1.4598086338      0.0000000000
C      -2.0129839167      0.6854914286      0.0000000000
C      -2.0142676257     -2.1884085419      0.0000000000
C       1.6589304944     -0.0462653651      0.0000000000
C       1.6583853321     -1.5050820265      0.0000000000
C       0.4396025516      0.6663461845     -0.0000000000
C       0.4742466037     -2.1887448401     -0.0000000000
C       0.4128389671      2.0860409236     -0.0000000000
C       2.8970917456      2.0587574728      0.0000000000
C       2.9023512040      0.6502026630      0.0000000000
C       1.6341259689      2.7886710711      0.0000000000
H      -4.1420411772      0.4912658956     -0.0000000000
H      -4.1420405292     -1.9912572059     -0.0000000000
H      -1.9911734886      1.7332179206     -0.0000000000
H      -1.9919894622     -3.2325814958     -0.0000000000
H       2.5830208308     -1.9913217291     -0.0000000000
H       0.4330247891     -3.2326225225     -0.0000000000
H      -0.5054240052      2.5910157848     -0.0000000000
H       3.7954995904      2.5914837189     -0.0000000000
H       3.7954924262      0.1088227304     -0.0000000000
H       1.6455718430      3.8327458308      0.0000000000
24
step 2  E = -28.22776244 Ha  |g|max = 0.036098
C      -3.2440844282     -0.0271047239     -0.0000000000
C      -3.2436493043     -1.4737597763     -0.0000000000
C      -0.8252539304     -0.0436784914     -0.0000000000
C      -0.7891480365     -1.5001759348      0.0000000000
C      -2.0640120723      0.7014734533      0.0000000000
C      -2.0536792413     -2.2056864799      0.0000000000
C       1.6937644879     -0.0666657204      0.0000000000
C       1.6792973709     -1.5338809008      0.0000000000
C       0.4504536484      0.6928516226     -0.0000000000
C       0.4887311410     -2.2212546341      0.0000000000
C       0.4245122056      2.1382236150      0.0000000000
C       2.8981380575      2.0722028103     -0.0000000000
C       2.9370201450      0.6756951543      0.0000000000
C       1.6455155936      2.7959071649      0.0000000000
H      -4.1702856817      0.5062544884     -0.0000000000
H      -4.1698513615     -2.0061587358      0.0000000000
H      -1.9908448037      1.7609624630     -0.0000000000
H      -1.9942869973     -3.2639119532     -0.0000000000
H       2.6092262148     -2.0094708625      0.0000000000
H       0.4356397077     -3.2643916175     -0.0000000000
H      -0.5296158262      2.6046034065     -0.0000000000
H       3.8223101100      2.6081178412     -0.0000000000
H       3.8237741659      0.0951472255     -0.0000000000
H       1.6467135932      3.8647005856      0.0000000000
24
step 3  E = -28.23776514 Ha  |g|max = 0.020507
C      -3.2976984495     -0.0219481982      0.0000000000
C      -3.2820906025     -1.4825461536     -0.0000000000
C      -0.8280710636     -0.0477718574     -0.0000000000
C      -0.7989603295     -1.5141187447      0.0000000000
C      -2.0786936727      0.7150749327      0.0000000000
C      -2.0636487159     -2.2295772008      0.0000000000
C       1.7107454621     -0.0651394304     -0.0000000000
C       1.7038901018     -1.5423919352      0.0000000000
C       0.4554071739      0.6932446485     -0.0000000000
C       0.4838055476     -2.2468080810      0.0000000000
C       0.4200737790      2.1577389936      0.0000000000
C       2.9249679326      2.1011007624     -0.0000000000
C       2.9626948535      0.6723836121      0.0000000000
C       1.6678569220      2.8449165322      0.0000000000
H      -4.1987769998      0.5154530523     -0.0000000000
H      -4.1972717822     -2.0163387931      0.0000000000
H      -1.9974732928      1.7935872006     -0.0000000000
H      -2.0067906611     -3.3009541038     -0.0000000000
H       2.6531473599     -2.0420478300      0.0000000000
H       0.4418916166     -3.3187169286     -0.0000000000
H      -0.5545554333      2.6266562152     -0.0000000000
H       3.8448365086      2.6267745934     -0.0000000000
H       3.8621054412      0.0874546407     -0.0000000000
H       1.6529930622      3.8939740729      0.0000000000
24
step 4  E = -28.24025222 Ha  |g|max = 0.012490
C      -3.2987513474     -0.0210047559      0.0000000000
C      -3.2893069813     -1.4896806381     -0.0000000000
C      -0.8262663513     -0.0468762225     -0.0000000000
C      -0.8074612959     -1.5095446376      0.0000000000
C      -2.0752903359      0.7079912417      0.0000000000
C      -2.0682134511     -2.2341625788     -0.0000000000
C       1.7110346522     -0.0554903240     -0.0000000000
C       1.7072361032     -1.5543535177      0.0000000000
C       0.4537291752      0.6921295393     -0.0000000000
C       0.4924915812     -2.2556865944      0.0000000000
C       0.4245067670      2.1512497720      0.0000000000
C       2.9347547668      2.1037830877     -0.0000000000
C       2.9689482750      0.6740440997      0.0000000000
C       1.6675663259      2.8463000897      0.0000000000
H      -4.2279865547      0.5236588088     -0.0000000000
H      -4.2167279503     -2.0225978445      0.0000000000
H      -2.0054756174      1.7967458555      0.0000000000
H      -2.0193548073     -3.3112067702     -0.0000000000
H       2.6635583543     -2.0538880794      0.0000000000
H       0.4469400761     -3.3336532390     -0.0000000000
H      -0.5532897463      2.6351657591     -0.0000000000
H       3.8599850902      2.6404946036     -0.0000000000
H       3.8772665838      0.0932091773     -0.0000000000
H       1.6604914460      3.9233731677      0.0000000000
24
step 5  E = -28.24172515 Ha  |g|max = 0.018611
C      -3.3118584546     -0.0170007990      0.0000000000
C      -3.2993493026     -1.4963685579      0.0000000000
C      -0.8264483504     -0.0515778085     -0.0000000000
C      -0.8012592499     -1.5129595064     -0.0000000000
C      -2.0713942482      0.7063639101      0.0000000000
C      -2.0758847142     -2.2366864760     -0.0000000000
C       1.7108909924     -0.0625688878     -0.0000000000
C       1.7125184531     -1.5572792106      0.0000000000
C       0.4578918676      0.6899363621      0.0000000000
C       0.4923841306     -2.2617240901     -0.0000000000
C       0.4239680337      2.1470619953     -0.0000000000
C       2.9455678359      2.1091360331      0.0000000000
C       2.9749696656      0.6794256598      0.0000000000
C       1.6706523511      2.8596531559      0.0000000000
H      -4.2450083832      0.5199210217     -0.0000000000
H      -4.2355645162     -2.0257385657     -0.0000000000
H      -2.0193386337      1.7778809379      0.0000000000
H      -2.0398712390     -3.3106563741     -0.0000000000
H       2.6606375666     -2.0620753503      0.0000000000
H       0.4554908546     -3.3352173981      0.0000000000
H      -0.5300207403      2.6377390246     -0.0000000000
H       3.8721233175      2.6552371876     -0.0000000000
H       3.8870481427      0.1112521264     -0.0000000000
H       1.6722393788      3.9362456100      0.0000000000
24
step 6  E = -28.24395315 Ha  |g|max = 0.015173
C      -3.3248610779     -0.0182612933      0.0000000000
C      -3.3234349885     -1.4967739701      0.0000000000
C      -0.8196673947     -0.0599913611      0.0000000000
C      -0.7994394804     -1.5311862908     -0.0000000000
C      -2.0895532042      0.6796211236      0.0000000000
C      -2.0866979506     -2.2313803701     -0.0000000000
C       1.7257659660     -0.0732582466     -0.0000000000
C       1.7108176510     -1.5609121832      0.0000000000
C       0.4617877401      0.6798571059      0.0000000000
C       0.4963807783     -2.2620676386     -0.0000000000
C       0.4562074441      2.1494167192     -0.0000000000
C       2.9579617761      2.1297921429      0.0000000000
C       2.9757810613      0.6914432501     -0.0000000000
C       1.6782452829      2.8702835109      0.0000000000
H      -4.2686510664      0.5082097655     -0.0000000000
H      -4.2629170314     -2.0276911757     -0.0000000000
H      -2.0446984200      1.7508333090      0.0000000000
H      -2.0809545857     -3.3078993809     -0.0000000000
H       2.6534052821     -2.0768799412      0.0000000000
H       0.4719281486     -3.3363563514      0.0000000000
H      -0.4939169134      2.6461774293      0.0000000000
H       3.8874905849      2.6779488556     -0.0000000000
H       3.9052021899      0.1482098449     -0.0000000000
H       1.6942029658      3.9508651461      0.0000000000
24
step 7  E = -28.24532372 Ha  |g|max = 0.007642
C      -3.3440913184     -0.0343364420      0.0000000000
C      -3.3344232115     -1.4953832636      0.0000000000
C      -0.8219128721     -0.0718473543      0.0000000000
C      -0.8074433879     -1.5352579617      0.0000000000
C      -2.0960834238      0.6594741276     -0.0000000000
C      -2.1042834928     -2.2274742263     -0.0000000000
C       1.7332940902     -0.0683624948     -0.0000000000
C       1.7147073968     -1.5628265705      0.0000000000
C       0.4731780700      0.6758737498      0.0000000000
C       0.4960938134     -2.2663934509     -0.0000000000
C       0.4769203642      2.1449985573     -0.0000000000
C       2.9622515004      2.1400035763      0.0000000000
C       2.9811910127      0.7086258484     -0.0000000000
C       1.7017818902      2.8788998133     -0.0000000000
H      -4.2767518328      0.4981833179     -0.0000000000
H      -4.2752458645     -2.0259565270     -0.0000000000
H      -2.0628913755      1.7360432476      0.0000000000
H      -2.1104680315     -3.3034527425     -0.0000000000
H       2.6470615293     -2.0875198983      0.0000000000
H       0.4843144982     -3.3361824789      0.0000000000
H      -0.4720118667      2.6545379603      0.0000000000
H       3.8921527516      2.6894932626     -0.0000000000
H       3.9161080110      0.1759925579     -0.0000000000
H       1.7069365074      3.9528673919      0.0000000000
24
step 8  E = -28.24570550 Ha  |g|max = 0.003397
C      -3.3461234498     -0.0403584351      0.0000000000
C      -3.3421304465     -1.5006592385      0.0000000000
C      -0.8239059332     -0.0714153638      0.0000000000
C      -0.8156483399     -1.5375842382     -0.0000000000
C      -2.0975633030      0.6559372032     -0.0000000000
C      -2.1086949068     -2.2292081875     -0.0000000000
C       1.7394111807     -0.0624199362     -0.0000000000
C       1.7121422520     -1.5614922081      0.0000000000
C       0.4738004859      0.6778157866      0.0000000000
C       0.4962207940     -2.2635047892      0.0000000000
C       0.4807233703      2.1445117080     -0.0000000000
C       2.9706742462      2.1440402501      0.0000000000
C       2.9848983741      0.7115792644     -0.0000000000
C       1.7080131549      2.8776486942     -0.0000000000
H      -4.2780217084      0.4951640661     -0.0000000000
H      -4.2743955417     -2.0237971219     -0.0000000000
H      -2.0690620270      1.7299694868      0.0000000000
H      -2.1208662546     -3.3005898641     -0.0000000000
H       2.6472646663     -2.0924045619      0.0000000000
H       0.4884431725     -3.3388007325      0.0000000000
H      -0.4636665099      2.6568450208      0.0000000000
H       3.8898574906      2.6898365640     -0.0000000000
H       3.9188277971      0.1864291225     -0.0000000000
H       1.7101861939      3.9524575104      0.0000000000
24
step 9  E = -28.24586960 Ha  |g|max = 0.003176
C      -3.3433939027     -0.0443603671      0.0000000000
C      -3.3412050482     -1.5030069856      0.0000000000
C      -0.8258821305     -0.0682693816      0.0000000000
C      -0.8208037772     -1.5375385244     -0.0000000000
C      -2.0991077035      0.6554209389     -0.0000000000
C      -2.1124894639     -2.2317817441     -0.0000000000
C       1.7419493101     -0.0579323396      0.0000000000
C       1.7136002361     -1.5568738709      0.0000000000
C       0.4720640840      0.6811002148      0.0000000000
C       0.4914922046     -2.2624582719      0.0000000000
C       0.4819426685      2.1455910660     -0.0000000000
C       2.9722447557      2.1420649582     -0.0000000000
C       2.9890244180      0.7135786689     -0.0000000000
C       1.7101141562      2.8732838710     -0.0000000000
H      -4.2764491365      0.4930793646     -0.0000000000
H      -4.2774509939     -2.0263213838     -0.0000000000
H      -2.0733512842      1.7271147581      0.0000000000
H      -2.1274594217     -3.3018492875     -0.0000000000
H       2.6453846785     -2.0945244518      0.0000000000
H       0.4912190448     -3.3382325602      0.0000000000
H      -0.4590496137      2.6591322622      0.0000000000
H       3.8935712916      2.6912205322     -0.0000000000
H       3.9232150733      0.1915092610     -0.0000000000
H       1.7112053124      3.9500532725      0.0000000000
24
step 10  E = -28.24606814 Ha  |g|max = 0.003811
C      -3.3419209003     -0.0464403452      0.0000000000
C      -3.3441832057     -1.5084358741     -0.0000000000
C      -0.8269984014     -0.0663019352      0.0000000000
C      -0.8240708235     -1.5342075549     -0.0000000000
C      -2.1012386700      0.6555857326      0.0000000000
C      -2.1152734299     -2.2370657688     -0.0000000000
C       1.7406981289     -0.0534375098      0.0000000000
C       1.7086854313     -1.5511023152      0.0000000000
C       0.4709183609      0.6830506569     -0.0000000000
C       0.4889512931     -2.2553161482      0.0000000000
C       0.4828654363      2.1475189339      0.0000000000
C       2.9784353898      2.1419296740     -0.0000000000
C       2.9949925007      0.7133476418     -0.0000000000
C       1.7111789688      2.8709682245     -0.0000000000
H      -4.2692136030      0.4876497667     -0.0000000000
H      -4.2813729777     -2.0315543495     -0.0000000000
H      -2.0809733578      1.7273297179      0.0000000000
H      -2.1371488763     -3.3091078932     -0.0000000000
H       2.6400947387     -2.0954709136      0.0000000000
H       0.4946836747     -3.3341245689      0.0000000000
H      -0.4554247375      2.6658406514      0.0000000000
H       3.9000641647      2.6920005870      0.0000000000
H       3.9343459376      0.1962712719     -0.0000000000
H       1.7122897154      3.9410723177      0.0000000000
24
step 11  E = -28.24615903 Ha  |g|max = 0.001810
C      -3.3396227588     -0.0510258346      0.0000000000
C      -3.3463880434     -1.5107101342     -0.0000000000
C      -0.8270199568     -0.0662213783      0.0000000000
C      -0.8251964833     -1.5339577040     -0.0000000000
C      -2.1021480570      0.6564283833      0.0000000000
C      -2.1160606152     -2.2394457601     -0.0000000000
C       1.7410445817     -0.0523377343      0.0000000000
C       1.7075212894     -1.5494010652      0.0000000000
C       0.4708593743      0.6831096029     -0.0000000000
C       0.4880600384     -2.2534573467      0.0000000000
C       0.4825903728      2.1487278115      0.0000000000
C       2.9815073757      2.1427019894     -0.0000000000
C       2.9974472263      0.7128393687     -0.0000000000
C       1.7140010484      2.8666852309     -0.0000000000
H      -4.2680936254      0.4864525370     -0.0000000000
H      -4.2828253679     -2.0345576920     -0.0000000000
H      -2.0856132066      1.7293821112      0.0000000000
H      -2.1411428362     -3.3136300374     -0.0000000000
H       2.6341156531     -2.0933239453      0.0000000000
H       0.4958138885     -3.3278730448      0.0000000000
H      -0.4548822378      2.6708850750      0.0000000000
H       3.9033913308      2.6917567226      0.0000000000
H       3.9402592093      0.1974690706     -0.0000000000
H       1.7127665579      3.9395037738      0.0000000000
24
step 12  E = -28.24619307 Ha  |g|max = 0.001093
C      -3.3405701142     -0.0523504950      0.0000000000
C      -3.3459773882     -1.5129812454     -0.0000000000
C      -0.8273909741     -0.0660337061      0.0000000000
C      -0.8259329962     -1.5356450236     -0.0000000000
C      -2.1013234002      0.6567037218      0.0000000000
C      -2.1165355448     -2.2410249068     -0.0000000000
C       1.7428740997     -0.0525435553      0.0000000000
C       1.7056676204     -1.5483217014      0.0000000000
C       0.4708823540      0.6835247494      0.0000000000
C       0.4880521164     -2.2513123404      0.0000000000
C       0.4819395943      2.1481513070      0.0000000000
C       2.9832688880      2.1412107960     -0.0000000000
C       2.9990522722      0.7124610964     -0.0000000000
C       1.7156219156      2.8668433345     -0.0000000000
H      -4.2680784055      0.4859315108      0.0000000000
H      -4.2833303759     -2.0360638048      0.0000000000
H      -2.0883124133      1.7308416236      0.0000000000
H      -2.1416928518     -3.3146806504     -0.0000000000
H       2.6316408053     -2.0917910131      0.0000000000
H       0.4957237541     -3.3249632976      0.0000000000
H      -0.4547966093      2.6739524128      0.0000000000
H       3.9049481666      2.6914410159      0.0000000000
H       3.9414440746      0.1974200916     -0.0000000000
H       1.7132101699      3.9392300799     -0.0000000000
24
step 13  E = -28.24621076 Ha  |g|max = 0.001323
C      -3.3407805937     -0.0526253418      0.0000000000
C      -3.3459938216     -1.5140200257     -0.0000000000
C      -0.8274166639     -0.0669760139      0.0000000000
C      -0.8270569427     -1.5360966688      0.0000000000
C      -2.1023147457      0.6567107685     -0.0000000000
C      -2.1159044818     -2.2429173162     -0.0000000000
C       1.7438272092     -0.0517960116      0.0000000000
C       1.7051699010     -1.5464356783      0.0000000000
C       0.4717112615      0.6830758435     -0.0000000000
C       0.4866676322     -2.2499382912      0.0000000000
C       0.4824291644      2.1490133608      0.0000000000
C       2.9841767149      2.1407056375     -0.0000000000
C       3.0003756153      0.7109683751     -0.0000000000
C       1.7159651798      2.8668881917     -0.0000000000
H      -4.2690316978      0.4855509724      0.0000000000
H      -4.2830972119     -2.0373001354      0.0000000000
H      -2.0905491841      1.7313147907      0.0000000000
H      -2.1407086856     -3.3149136996     -0.0000000000
H       2.6306896195     -2.0906855860      0.0000000000
H       0.4952420191     -3.3235868330     -0.0000000000
H      -0.4540879986      2.6761260966      0.0000000000
H       3.9059022783      2.6906209247      0.0000000000
H       3.9411538180      0.1964512540     -0.0000000000
H       1.7140163720      3.9398653861     -0.0000000000
24
step 14  E = -28.24623570 Ha  |g|max = 0.001662
C      -3.3419100526     -0.0534322715     -0.0000000000
C      -3.3448616667     -1.5154109471     -0.0000000000
C      -0.8277531052     -0.0670552918      0.0000000000
C      -0.8286727632     -1.5353904025      0.0000000000
C      -2.1041639706      0.6564940881      0.0000000000
C      -2.1167708944     -2.2433639538     -0.0000000000
C       1.7440234750     -0.0500435369      0.0000000000
C       1.7040401273     -1.5441580633      0.0000000000
C       0.4719481388      0.6833275712     -0.0000000000
C       0.4852600466     -2.2478210709      0.0000000000
C       0.4835414275      2.1505064963     -0.0000000000
C       2.9848152107      2.1390297020     -0.0000000000
C       3.0011956211      0.7114953916     -0.0000000000
C       1.7172287308      2.8674628670      0.0000000000
H      -4.2711968815      0.4842763664      0.0000000000
H      -4.2821423561     -2.0398294805      0.0000000000
H      -2.0948687594      1.7306628916     -0.0000000000
H      -2.1371496208     -3.3174726203     -0.0000000000
H       2.6299095498     -2.0886482184      0.0000000000
H       0.4938676418     -3.3218925890     -0.0000000000
H      -0.4513636498      2.6795410090      0.0000000000
H       3.9076153276      2.6885293227     -0.0000000000
H       3.9415903759      0.1920895531     -0.0000000000
H       1.7162028050      3.9411031872     -0.0000000000
24
step 15  E = -28.24627235 Ha  |g|max = 0.001603
C      -3.3442573620     -0.0547878512     -0.0000000000
C      -3.3461667039     -1.5172647675      0.0000000000
C      -0.8291910961     -0.0643336325      0.0000000000
C      -0.8296514419     -1.5331031612      0.0000000000
C      -2.1066457720      0.6552710196      0.0000000000
C      -2.1170239540     -2.2458724501     -0.0000000000
C       1.7425320052     -0.0480523556     -0.0000000000
C       1.7026326555     -1.5421123290      0.0000000000
C       0.4703101081      0.6859337376     -0.0000000000
C       0.4841921247     -2.2455792975     -0.0000000000
C       0.4858415367      2.1520442651     -0.0000000000
C       2.9870731849      2.1392329871     -0.0000000000
C       3.0034945725      0.7104602996     -0.0000000000
C       1.7195763519      2.8688179067      0.0000000000
H      -4.2742148571      0.4812888916      0.0000000000
H      -4.2796046752     -2.0435823765     -0.0000000000
H      -2.1017321663      1.7292623772     -0.0000000000
H      -2.1309203264     -3.3201760381     -0.0000000000
H       2.6286657844     -2.0851746022      0.0000000000
H       0.4914812846     -3.3190786484     -0.0000000000
H      -0.4467190652      2.6847846366      0.0000000000
H       3.9095965904      2.6844551787     -0.0000000000
H       3.9408169572      0.1853431170     -0.0000000000
H       1.7202990219      3.9422230932     -0.0000000000
24
step 16  E = -28.24632719 Ha  |g|max = 0.003050
C      -3.3482810582     -0.0609408752     -0.0000000000
C      -3.3460401347     -1.5202100330      0.0000000000
C      -0.8330917622     -0.0586119916      0.0000000000
C      -0.8306685145     -1.5296979650      0.0000000000
C      -2.1125664712      0.6549662565      0.0000000000
C      -2.1129588842     -2.2463614039     -0.0000000000
C       1.7400915550     -0.0454689468      0.0000000000
C       1.7006745996     -1.5397857575      0.0000000000
C       0.4673053548      0.6921726339     -0.0000000000
C       0.4831562825     -2.2427202856     -0.0000000000
C       0.4890658189      2.1570193595     -0.0000000000
C       2.9895605750      2.1376507422     -0.0000000000
C       3.0018854839      0.7066953689      0.0000000000
C       1.7269168751      2.8692260178      0.0000000000
H      -4.2787145348      0.4753294211     -0.0000000000
H      -4.2794650613     -2.0513384129      0.0000000000
H      -2.1124882007      1.7269382412     -0.0000000000
H      -2.1211380488     -3.3218595398      0.0000000000
H       2.6276088206     -2.0799936785      0.0000000000
H       0.4875229550     -3.3155728291     -0.0000000000
H      -0.4393282873      2.6929375676      0.0000000000
H       3.9162437080      2.6804562513     -0.0000000000
H       3.9373837737      0.1760296653     -0.0000000000
H       1.7277099136      3.9431401933      0.0000000000
24
step 17  E = -28.24640423 Ha  |g|max = 0.002442
C      -3.3544828324     -0.0680429986     -0.0000000000
C      -3.3465781248     -1.5302327547      0.0000000000
C      -0.8387372334     -0.0522097329      0.0000000000
C      -0.8302944377     -1.5224148033      0.0000000000
C      -2.1216096673      0.6529330671      0.0000000000
C      -2.1073754763     -2.2459060815     -0.0000000000
C       1.7335971136     -0.0421513260      0.0000000000
C       1.6977645029     -1.5360453350      0.0000000000
C       0.4645835717      0.7002628848     -0.0000000000
C       0.4813720301     -2.2383298566     -0.0000000000
C       0.4953482106      2.1638344024     -0.0000000000
C       2.9985095017      2.1331052945     -0.0000000000
C       2.9986994592      0.7020876570      0.0000000000
C       1.7361683815      2.8710458501      0.0000000000
H      -4.2846749125      0.4652571632     -0.0000000000
H      -4.2785876169     -2.0616958816      0.0000000000
H      -2.1279972022      1.7264607179     -0.0000000000
H      -2.1077401451     -3.3210320984      0.0000000000
H       2.6272615251     -2.0736032880      0.0000000000
H       0.4821623623     -3.3120768671     -0.0000000000
H      -0.4311602392      2.7061299953      0.0000000000
H       3.9247748168      2.6745176277     -0.0000000000
H       3.9299682366      0.1648404611     -0.0000000000
H       1.7394129337      3.9432659028      0.0000000000
24
step 18  E = -28.24644030 Ha  |g|max = 0.001106
C      -3.3564145759     -0.0729840178     -0.0000000000
C      -3.3462302704     -1.5344637497      0.0000000000
C      -0.8390941348     -0.0493438688      0.0000000000
C      -0.8295416770     -1.5184157438      0.0000000000
C      -2.1266128983      0.6530803562      0.0000000000
C      -2.1064143404     -2.2456083443     -0.0000000000
C       1.7297574462     -0.0408037061      0.0000000000
C       1.6970228847     -1.5344027902      0.0000000000
C       0.4622801113      0.7020049025     -0.0000000000
C       0.4803203536     -2.2368663240     -0.0000000000
C       0.4977222700      2.1682409721     -0.0000000000
C       3.0019997236      2.1306885462     -0.0000000000
C       2.9979610433      0.7014041576      0.0000000000
C       1.7414133014      2.8702482794      0.0000000000
H      -4.2884035635      0.4601446668     -0.0000000000
H      -4.2781614720     -2.0670716207      0.0000000000
H      -2.1354765079      1.7264865017     -0.0000000000
H      -2.1015932086     -3.3194252344      0.0000000000
H       2.6270280084     -2.0707867359      0.0000000000
H       0.4798399149     -3.3104663596     -0.0000000000
H      -0.4274429158      2.7126201559      0.0000000000
H       3.9292172710      2.6714607059     -0.0000000000
H       3.9255031832      0.1603204898     -0.0000000000
H       1.7457048109      3.9439387611      0.0000000000
24
step 19  E = -28.24645600 Ha  |g|max = 0.001279
C      -3.3568045986     -0.0739750086     -0.0000000000
C      -3.3466166077     -1.5360839228      0.0000000000
C      -0.8392877966     -0.0474786359      0.0000000000
C      -0.8296176592     -1.5182110604      0.0000000000
C      -2.1276953674      0.6532342107      0.0000000000
C      -2.1065397700     -2.2440182756     -0.0000000000
C       1.7296181763     -0.0406355619      0.0000000000
C       1.6968950731     -1.5339565939      0.0000000000
C       0.4607616031      0.7031052350     -0.0000000000
C       0.4799978421     -2.2365325377     -0.0000000000
C       0.4981302626      2.1692553450     -0.0000000000
C       3.0035960033      2.1302130376     -0.0000000000
C       2.9966467183      0.7023078171      0.0000000000
C       1.7424665360      2.8700905536      0.0000000000
H      -4.2902887342      0.4559693167     -0.0000000000
H      -4.2772619564     -2.0701772967      0.0000000000
H      -2.1393747089      1.7269974686     -0.0000000000
H      -2.0994870628     -3.3181710714      0.0000000000
H       2.6269321808     -2.0699538329      0.0000000000
H       0.4791665135     -3.3099669190     -0.0000000000
H      -0.4259363256      2.7162515805      0.0000000000
H       3.9314571075      2.6691288646     -0.0000000000
H       3.9233639734      0.1591235956     -0.0000000000
H       1.7502633555      3.9434836917      0.0000000000
24
step 20  E = -28.24646980 Ha  |g|max = 0.000613
C      -3.3571481362     -0.0748973310     -0.0000000000
C      -3.3473670097     -1.5360636271      0.0000000000
C      -0.8401642944     -0.0471562387      0.0000000000
C      -0.8296080295     -1.5171231691      0.0000000000
C      -2.1284351106      0.6538513147      0.0000000000
C      -2.1062007070     -2.2435731460      0.0000000000
C       1.7286712199     -0.0400999558      0.0000000000
C       1.6968376626     -1.5335468352      0.0000000000
C       0.4609206479      0.7040255030     -0.0000000000
C       0.4796716859     -2.2362779395     -0.0000000000
C       0.4979657065      2.1702045334     -0.0000000000
C       3.0039536278      2.1308730527      0.0000000000
C       2.9960916932      0.7022367447      0.0000000000
C       1.7434370594      2.8699269047      0.0000000000
H      -4.2921606276      0.4514801568     -0.0000000000
H      -4.2763215849     -2.0734540175      0.0000000000
H      -2.1430877587      1.7274359269     -0.0000000000
H      -2.0981353599     -3.3164832055      0.0000000000
H       2.6269525912     -2.0695804368      0.0000000000
H       0.4788329378     -3.3097978969     -0.0000000000
H      -0.4244595167      2.7196864050      0.0000000000
H       3.9338246452      2.6666761185     -0.0000000000
H       3.9212263871      0.1587969195     -0.0000000000
H       1.7550870287      3.9428602190      0.0000000000
24
step 21  E = -28.24647257 Ha  |g|max = 0.000418
C      -3.3574213732     -0.0750251352     -0.0000000000
C      -3.3469864016     -1.5359514703      0.0000000000
C      -0.8403202782     -0.0470970612      0.0000000000
C      -0.8299265319     -1.5167916857      0.0000000000
C      -2.1287928822      0.6539045005      0.0000000000
C      -2.1059355508     -2.2431679662      0.0000000000
C       1.7285433980     -0.0396583829      0.0000000000
C       1.6964172868     -1.5337428055      0.0000000000
C       0.4609473905      0.7041901777     -0.0000000000
C       0.4800515891     -2.2360118685     -0.0000000000
C       0.4980985321      2.1705409657     -0.0000000000
C       3.0036661930      2.1305995148      0.0000000000
C       2.9956082191      0.7022097026      0.0000000000
C       1.7436843596      2.8700996328      0.0000000000
H      -4.2928262038      0.4504099994     -0.0000000000
H      -4.2760466238     -2.0741829211      0.0000000000
H      -2.1438284666      1.7275833643     -0.0000000000
H      -2.0983329670     -3.3165716466      0.0000000000
H       2.6269999190     -2.0697258440      0.0000000000
H       0.4789352003     -3.3099115876     -0.0000000000
H      -0.4242168473      2.7204015956      0.0000000000
H       3.9343184137      2.6660735434     -0.0000000000
H       3.9214017829      0.1589238317     -0.0000000000
H       1.7563466003      3.9429015463      0.0000000000
24
step 22  E = -28.24647825 Ha  |g|max = 0.000641
C      -3.3584182123     -0.0751806626      0.0000000000
C      -3.3463538694     -1.5361434787     -0.0000000000
C      -0.8409531554     -0.0462496993     -0.0000000000
C      -0.8298091403     -1.5161137951      0.0000000000
C      -2.1298579733      0.6540324694      0.0000000000
C      -2.1050783551     -2.2433009644      0.0000000000
C       1.7278976318     -0.0394211017      0.0000000000
C       1.6967508586     -1.5336868028      0.0000000000
C       0.4605299922      0.7051619464      0.0000000000
C       0.4798363034     -2.2362727489     -0.0000000000
C       0.4985202533      2.1715273460     -0.0000000000
C       3.0035162111      2.1299557216      0.0000000000
C       2.9952948011      0.7014008502     -0.0000000000
C       1.7443174698      2.8708851571     -0.0000000000
H      -4.2951596318      0.4480810967     -0.0000000000
H      -4.2742980906     -2.0751968737      0.0000000000
H      -2.1452026450      1.7278351836     -0.0000000000
H      -2.0999918126     -3.3169508161      0.0000000000
H       2.6264859289     -2.0703052762      0.0000000000
H       0.4796939983     -3.3097561752     -0.0000000000
H      -0.4237478401      2.7217175786     -0.0000000000
H       3.9343222558      2.6640522930     -0.0000000000
H       3.9225595761      0.1601708494     -0.0000000000
H       1.7595302032      3.9437579028      0.0000000000
24
step 23  E = -28.24648010 Ha  |g|max = 0.000169
C      -3.3588050438     -0.0754319253      0.0000000000
C      -3.3459538302     -1.5362039910     -0.0000000000
C      -0.8411529583     -0.0458674515     -0.0000000000
C      -0.8294605654     -1.5161461531     -0.0000000000
C      -2.1302984102      0.6542540679      0.0000000000
C      -2.1051303764     -2.2435077520      0.0000000000
C       1.7277513672     -0.0397391555      0.0000000000
C       1.6964186345     -1.5336143462      0.0000000000
C       0.4602988573      0.7055261046      0.0000000000
C       0.4799396662     -2.2359488060     -0.0000000000
C       0.4985485618      2.1720195748     -0.0000000000
C       3.0033685967      2.1295790214      0.0000000000
C       2.9954998950      0.7013425082     -0.0000000000
C       1.7447284855      2.8710945317     -0.0000000000
H      -4.2960072403      0.4473848524     -0.0000000000
H      -4.2737412682     -2.0755270378      0.0000000000
H      -2.1456087185      1.7278462222     -0.0000000000
H      -2.1006029641     -3.3169851342      0.0000000000
H       2.6264074390     -2.0705640790      0.0000000000
H       0.4799573731     -3.3098176024     -0.0000000000
H      -0.4235543630      2.7220747679     -0.0000000000
H       3.9343297751      2.6634049886     -0.0000000000
H       3.9228948723      0.1606829631     -0.0000000000
H       1.7605569727      3.9441438312      0.0000000000
24
step 24  E = -28.24648031 Ha  |g|max = 0.000086
C      -3.3588593097     -0.0754596810     -0.0000000000
C      -3.3459079582     -1.5363298626     -0.0000000000
C      -0.8411873638     -0.0459311628     -0.0000000000
C      -0.8294762106     -1.5163063973     -0.0000000000
C      -2.1305453210      0.6542500916      0.0000000000
C      -2.1051860521     -2.2435381835      0.0000000000
C       1.7278979653     -0.0398057284      0.0000000000
C       1.6964486578     -1.5336058393      0.0000000000
C       0.4603712357      0.7055240450      0.0000000000
C       0.4799172873     -2.2359705535     -0.0000000000
C       0.4986754608      2.1722314177     -0.0000000000
C       3.0034546687      2.1294763592     -0.0000000000
C       2.9955540874      0.7013755090     -0.0000000000
C       1.7447796556      2.8711276495     -0.0000000000
H      -4.2961044751      0.4473340224     -0.0000000000
H      -4.2737187561     -2.0755621800     -0.0000000000
H      -2.1456232165      1.7279079486     -0.0000000000
H      -2.1007417644     -3.3169871744      0.0000000000
H       2.6262716115     -2.0705354847      0.0000000000
H       0.4800005235     -3.3096856752     -0.0000000000
H      -0.4236005706      2.7221181868     -0.0000000000
H       3.9343489531      2.6633679214     -0.0000000000
H       3.9229660392      0.1608021476     -0.0000000000
H       1.7606496102      3.9442026239      0.0000000000
