24
phenanthrene: angular C14H10, ideal a=1.40 A planar
C    -3.2042939940    -0.0500000000     0.0000000000
C    -3.2042939940    -1.4500000000     0.0000000000
C    -0.7794228634    -0.0500000000     0.0000000000
C    -0.7794228634    -1.4500000000     0.0000000000
C    -1.9918584287     0.6500000000     0.0000000000
C    -1.9918584287    -2.1500000000     0.0000000000
C     1.6454482672    -0.0500000000     0.0000000000
C     1.6454482672    -1.4500000000     0.0000000000
C     0.4330127019     0.6500000000     0.0000000000
C     0.4330127019    -2.1500000000     0.0000000000
C     0.4330127019     2.0500000000     0.0000000000
C     2.8578838325     2.0500000000     0.0000000000
C     2.8578838325     0.6500000000     0.0000000000
C     1.6454482672     2.7500000000     0.0000000000
H    -4.1482616841     0.4950000000     0.0000000000
H    -4.1482616841    -1.9950000000     0.0000000000
H    -1.9918584287     1.7400000000     0.0000000000
H    -1.9918584287    -3.2400000000     0.0000000000
H     2.5894159573    -1.9950000000     0.0000000000
H     0.4330127019    -3.2400000000     0.0000000000
H    -0.5109549882     2.5950000000     0.0000000000
H     3.8018515226     2.5950000000     0.0000000000
H     3.8018515226     0.1050000000     0.0000000000
H     1.6454482672     3.8400000000     0.0000000000
