24
phenanthrene optimised (CG)  E = -28.24648031 Ha  |g|max = 0.000086
C      -3.3588593097     -0.0754596810     -0.0000000000
C      -3.3459079582     -1.5363298626     -0.0000000000
C      -0.8411873638     -0.0459311628     -0.0000000000
C      -0.8294762106     -1.5163063973     -0.0000000000
C      -2.1305453210      0.6542500916      0.0000000000
C      -2.1051860521     -2.2435381835      0.0000000000
C       1.7278979653     -0.0398057284      0.0000000000
C       1.6964486578     -1.5336058393      0.0000000000
C       0.4603712357      0.7055240450      0.0000000000
C       0.4799172873     -2.2359705535     -0.0000000000
C       0.4986754608      2.1722314177     -0.0000000000
C       3.0034546687      2.1294763592     -0.0000000000
C       2.9955540874      0.7013755090     -0.0000000000
C       1.7447796556      2.8711276495     -0.0000000000
H      -4.2961044751      0.4473340224     -0.0000000000
H      -4.2737187561     -2.0755621800     -0.0000000000
H      -2.1456232165      1.7279079486     -0.0000000000
H      -2.1007417644     -3.3169871744      0.0000000000
H       2.6262716115     -2.0705354847      0.0000000000
H       0.4800005235     -3.3096856752     -0.0000000000
H      -0.4236005706      2.7221181868     -0.0000000000
H       3.9343489531      2.6633679214     -0.0000000000
H       3.9229660392      0.1608021476     -0.0000000000
H       1.7606496102      3.9442026239      0.0000000000
