30
tetracene optimised (CG)  E = -35.96922027 Ha  |g|max = 0.000071
C      -5.0631870983      0.7426590952     -0.0000000000
C      -5.0631870983     -0.7426590952      0.0000000000
C      -2.5384942295      0.7483915492     -0.0000000000
C      -2.5384942295     -0.7483915492      0.0000000000
C      -3.8508165244      1.4600803872      0.0000000000
C      -3.8508165244     -1.4600803872      0.0000000000
C       0.0000000000      0.7488294779     -0.0000000000
C       0.0000000000     -0.7488294779     -0.0000000000
C      -1.2819330196      1.4611447500     -0.0000000000
C      -1.2819330196     -1.4611447500     -0.0000000000
C       2.5384942295      0.7483915492     -0.0000000000
C       2.5384942295     -0.7483915492     -0.0000000000
C       1.2819330196      1.4611447500     -0.0000000000
C       1.2819330196     -1.4611447500      0.0000000000
C       5.0631870983      0.7426590952     -0.0000000000
C       5.0631870983     -0.7426590952      0.0000000000
C       3.8508165244      1.4600803872      0.0000000000
C       3.8508165244     -1.4600803872      0.0000000000
H      -6.0018383863      1.2632775976     -0.0000000000
H      -6.0018383863     -1.2632775976      0.0000000000
H      -3.8594917416      2.5337817070     -0.0000000000
H      -3.8594917416     -2.5337817070      0.0000000000
H      -1.2824858139      2.5349035051     -0.0000000000
H      -1.2824858139     -2.5349035051      0.0000000000
H       1.2824858139      2.5349035051      0.0000000000
H       1.2824858139     -2.5349035051      0.0000000000
H       6.0018383863      1.2632775976      0.0000000000
H       6.0018383863     -1.2632775976     -0.0000000000
H       3.8594917416      2.5337817071      0.0000000000
H       3.8594917416     -2.5337817070     -0.0000000000
