30
tetracene: linear acene, 4 rings, ideal a=1.40 A planar
C    -4.8497422612     0.7000000000     0.0000000000
C    -4.8497422612    -0.7000000000     0.0000000000
C    -2.4248711306     0.7000000000     0.0000000000
C    -2.4248711306    -0.7000000000     0.0000000000
C    -3.6373066959     1.4000000000     0.0000000000
C    -3.6373066959    -1.4000000000     0.0000000000
C     0.0000000000     0.7000000000     0.0000000000
C     0.0000000000    -0.7000000000     0.0000000000
C    -1.2124355653     1.4000000000     0.0000000000
C    -1.2124355653    -1.4000000000     0.0000000000
C     2.4248711306     0.7000000000     0.0000000000
C     2.4248711306    -0.7000000000     0.0000000000
C     1.2124355653     1.4000000000     0.0000000000
C     1.2124355653    -1.4000000000     0.0000000000
C     4.8497422612     0.7000000000     0.0000000000
C     4.8497422612    -0.7000000000     0.0000000000
C     3.6373066959     1.4000000000     0.0000000000
C     3.6373066959    -1.4000000000     0.0000000000
H    -5.7937099513     1.2450000000     0.0000000000
H    -5.7937099513    -1.2450000000     0.0000000000
H    -3.6373066959     2.4900000000     0.0000000000
H    -3.6373066959    -2.4900000000     0.0000000000
H    -1.2124355653     2.4900000000     0.0000000000
H    -1.2124355653    -2.4900000000     0.0000000000
H     1.2124355653     2.4900000000     0.0000000000
H     1.2124355653    -2.4900000000     0.0000000000
H     5.7937099513     1.2450000000     0.0000000000
H     5.7937099513    -1.2450000000     0.0000000000
H     3.6373066959     2.4900000000     0.0000000000
H     3.6373066959    -2.4900000000     0.0000000000
