30
step 0  E = -35.87403153 Ha
C      -4.8497422612      0.7000000000      0.0000000000
C      -4.8497422612     -0.7000000000      0.0000000000
C      -2.4248711306      0.7000000000      0.0000000000
C      -2.4248711306     -0.7000000000      0.0000000000
C      -3.6373066959      1.4000000000      0.0000000000
C      -3.6373066959     -1.4000000000      0.0000000000
C       0.0000000000      0.7000000000      0.0000000000
C       0.0000000000     -0.7000000000      0.0000000000
C      -1.2124355653      1.4000000000      0.0000000000
C      -1.2124355653     -1.4000000000      0.0000000000
C       2.4248711306      0.7000000000      0.0000000000
C       2.4248711306     -0.7000000000      0.0000000000
C       1.2124355653      1.4000000000      0.0000000000
C       1.2124355653     -1.4000000000      0.0000000000
C       4.8497422612      0.7000000000      0.0000000000
C       4.8497422612     -0.7000000000      0.0000000000
C       3.6373066959      1.4000000000      0.0000000000
C       3.6373066959     -1.4000000000      0.0000000000
H      -5.7937099513      1.2450000000      0.0000000000
H      -5.7937099513     -1.2450000000      0.0000000000
H      -3.6373066959      2.4900000000      0.0000000000
H      -3.6373066959     -2.4900000000      0.0000000000
H      -1.2124355653      2.4900000000      0.0000000000
H      -1.2124355653     -2.4900000000      0.0000000000
H       1.2124355653      2.4900000000      0.0000000000
H       1.2124355653     -2.4900000000      0.0000000000
H       5.7937099513      1.2450000000      0.0000000000
H       5.7937099513     -1.2450000000      0.0000000000
H       3.6373066959      2.4900000000      0.0000000000
H       3.6373066959     -2.4900000000      0.0000000000
30
step 1  E = -35.91932434 Ha  |g|max = 0.027012
C      -4.8715549708      0.7391413741      0.0000000000
C      -4.8715549708     -0.7391413741     -0.0000000000
C      -2.4129346713      0.7265064521      0.0000000000
C      -2.4129346713     -0.7265064521     -0.0000000000
C      -3.6707738139      1.4386991254      0.0000000000
C      -3.6707738139     -1.4386991254      0.0000000000
C       0.0000000000      0.7309135711     -0.0000000000
C       0.0000000000     -0.7309135711      0.0000000000
C      -1.2176286743      1.4408026477     -0.0000000000
C      -1.2176286743     -1.4408026477      0.0000000000
C       2.4129346713      0.7265064521     -0.0000000000
C       2.4129346713     -0.7265064521      0.0000000000
C       1.2176286743      1.4408026477     -0.0000000000
C       1.2176286743     -1.4408026477      0.0000000000
C       4.8715549708      0.7391413741     -0.0000000000
C       4.8715549708     -0.7391413741      0.0000000000
C       3.6707738139      1.4386991254      0.0000000000
C       3.6707738139     -1.4386991254     -0.0000000000
H      -5.7875680852      1.2412907915      0.0000000000
H      -5.7875680852     -1.2412907915      0.0000000000
H      -3.6374125874      2.4826370368     -0.0000000000
H      -3.6374125874     -2.4826370368      0.0000000000
H      -1.2124016495      2.4825071681     -0.0000000000
H      -1.2124016495     -2.4825071681     -0.0000000000
H       1.2124016495      2.4825071681     -0.0000000000
H       1.2124016495     -2.4825071681     -0.0000000000
H       5.7875680852      1.2412907915      0.0000000000
H       5.7875680852     -1.2412907915     -0.0000000000
H       3.6374125874      2.4826370368     -0.0000000000
H       3.6374125874     -2.4826370368     -0.0000000000
30
step 2  E = -35.93770332 Ha  |g|max = 0.043236
C      -4.8793856600      0.7345592860      0.0000000000
C      -4.8793856600     -0.7345592860     -0.0000000000
C      -2.4324920215      0.7424267502      0.0000000000
C      -2.4324920215     -0.7424267502      0.0000000000
C      -3.7191201080      1.4566054308     -0.0000000000
C      -3.7191201080     -1.4566054308     -0.0000000000
C       0.0000000000      0.7342982899     -0.0000000000
C      -0.0000000000     -0.7342982899     -0.0000000000
C      -1.2221753869      1.4790175301     -0.0000000000
C      -1.2221753869     -1.4790175301      0.0000000000
C       2.4324920215      0.7424267502      0.0000000000
C       2.4324920215     -0.7424267502     -0.0000000000
C       1.2221753869      1.4790175301     -0.0000000000
C       1.2221753869     -1.4790175301      0.0000000000
C       4.8793856600      0.7345592860      0.0000000000
C       4.8793856600     -0.7345592860      0.0000000000
C       3.7191201080      1.4566054308     -0.0000000000
C       3.7191201080     -1.4566054308     -0.0000000000
H      -5.8219545397      1.2603532920      0.0000000000
H      -5.8219545397     -1.2603532920     -0.0000000000
H      -3.6424609284      2.5224912266     -0.0000000000
H      -3.6424609284     -2.5224912266      0.0000000000
H      -1.2135458499      2.5261808034     -0.0000000000
H      -1.2135458499     -2.5261808034      0.0000000000
H       1.2135458499      2.5261808034     -0.0000000000
H       1.2135458499     -2.5261808034     -0.0000000000
H       5.8219545397      1.2603532920      0.0000000000
H       5.8219545397     -1.2603532920     -0.0000000000
H       3.6424609284      2.5224912266      0.0000000000
H       3.6424609284     -2.5224912266     -0.0000000000
30
step 3  E = -35.95080239 Ha  |g|max = 0.010543
C      -4.9255114525      0.7402702101      0.0000000000
C      -4.9255114525     -0.7402702101     -0.0000000000
C      -2.4534264194      0.7511029038      0.0000000000
C      -2.4534264194     -0.7511029038      0.0000000000
C      -3.7316272010      1.4846922008     -0.0000000000
C      -3.7316272010     -1.4846922008     -0.0000000000
C      -0.0000000000      0.7466148105     -0.0000000000
C       0.0000000000     -0.7466148105     -0.0000000000
C      -1.2351666819      1.4940348361     -0.0000000000
C      -1.2351666819     -1.4940348361      0.0000000000
C       2.4534264194      0.7511029038      0.0000000000
C       2.4534264194     -0.7511029038     -0.0000000000
C       1.2351666819      1.4940348361     -0.0000000000
C       1.2351666819     -1.4940348361      0.0000000000
C       4.9255114525      0.7402702101      0.0000000000
C       4.9255114525     -0.7402702101      0.0000000000
C       3.7316272010      1.4846922008     -0.0000000000
C       3.7316272010     -1.4846922008     -0.0000000000
H      -5.8464063255      1.2701626090      0.0000000000
H      -5.8464063255     -1.2701626090     -0.0000000000
H      -3.6549687568      2.5558874249     -0.0000000000
H      -3.6549687568     -2.5558874249      0.0000000000
H      -1.2145453160      2.5779472898     -0.0000000000
H      -1.2145453160     -2.5779472898      0.0000000000
H       1.2145453160      2.5779472898     -0.0000000000
H       1.2145453160     -2.5779472898     -0.0000000000
H       5.8464063255      1.2701626090      0.0000000000
H       5.8464063255     -1.2701626090     -0.0000000000
H       3.6549687568      2.5558874249     -0.0000000000
H       3.6549687568     -2.5558874249     -0.0000000000
30
step 4  E = -35.95316948 Ha  |g|max = 0.010312
C      -4.9363390555      0.7519625475      0.0000000000
C      -4.9363390555     -0.7519625475     -0.0000000000
C      -2.4651414086      0.7476592932      0.0000000000
C      -2.4651414086     -0.7476592932      0.0000000000
C      -3.7342843917      1.4804995524     -0.0000000000
C      -3.7342843917     -1.4804995524      0.0000000000
C       0.0000000000      0.7544161250     -0.0000000000
C      -0.0000000000     -0.7544161250      0.0000000000
C      -1.2408598336      1.5010493409     -0.0000000000
C      -1.2408598336     -1.5010493409      0.0000000000
C       2.4651414086      0.7476592932      0.0000000000
C       2.4651414086     -0.7476592932     -0.0000000000
C       1.2408598336      1.5010493409     -0.0000000000
C       1.2408598336     -1.5010493409      0.0000000000
C       4.9363390555      0.7519625475      0.0000000000
C       4.9363390555     -0.7519625475      0.0000000000
C       3.7342843917      1.4804995524      0.0000000000
C       3.7342843917     -1.4804995524     -0.0000000000
H      -5.8657939169      1.2727573339      0.0000000000
H      -5.8657939169     -1.2727573339     -0.0000000000
H      -3.6702451256      2.5614757985     -0.0000000000
H      -3.6702451256     -2.5614757985      0.0000000000
H      -1.2175228242      2.5755692735     -0.0000000000
H      -1.2175228242     -2.5755692735      0.0000000000
H       1.2175228242      2.5755692735      0.0000000000
H       1.2175228242     -2.5755692735     -0.0000000000
H       5.8657939169      1.2727573339     -0.0000000000
H       5.8657939169     -1.2727573339     -0.0000000000
H       3.6702451256      2.5614757985     -0.0000000000
H       3.6702451256     -2.5614757985     -0.0000000000
30
step 5  E = -35.95792165 Ha  |g|max = 0.021253
C      -4.9652300809      0.7514463807     -0.0000000000
C      -4.9652300809     -0.7514463807     -0.0000000000
C      -2.4745459648      0.7446883783      0.0000000000
C      -2.4745459648     -0.7446883783     -0.0000000000
C      -3.7614952286      1.4828698698     -0.0000000000
C      -3.7614952286     -1.4828698698      0.0000000000
C      -0.0000000000      0.7653584372      0.0000000000
C       0.0000000000     -0.7653584372      0.0000000000
C      -1.2579027436      1.4907679610     -0.0000000000
C      -1.2579027436     -1.4907679610      0.0000000000
C       2.4745459648      0.7446883783      0.0000000000
C       2.4745459648     -0.7446883783      0.0000000000
C       1.2579027436      1.4907679610     -0.0000000000
C       1.2579027436     -1.4907679610     -0.0000000000
C       4.9652300809      0.7514463807     -0.0000000000
C       4.9652300809     -0.7514463807      0.0000000000
C       3.7614952286      1.4828698698      0.0000000000
C       3.7614952286     -1.4828698698      0.0000000000
H      -5.9221511161      1.2796719484      0.0000000000
H      -5.9221511161     -1.2796719484     -0.0000000000
H      -3.7188323816      2.5559377624     -0.0000000000
H      -3.7188323816     -2.5559377624      0.0000000000
H      -1.2300747081      2.5654982191     -0.0000000000
H      -1.2300747081     -2.5654982191     -0.0000000000
H       1.2300747081      2.5654982191     -0.0000000000
H       1.2300747081     -2.5654982191     -0.0000000000
H       5.9221511161      1.2796719484     -0.0000000000
H       5.9221511161     -1.2796719484     -0.0000000000
H       3.7188323816      2.5559377624     -0.0000000000
H       3.7188323816     -2.5559377624      0.0000000000
30
step 6  E = -35.96643306 Ha  |g|max = 0.014260
C      -5.0486505954      0.7530632945     -0.0000000000
C      -5.0486505954     -0.7530632945     -0.0000000000
C      -2.5117214986      0.7533333682      0.0000000000
C      -2.5117214986     -0.7533333682      0.0000000000
C      -3.8224631275      1.4692911609      0.0000000000
C      -3.8224631275     -1.4692911609      0.0000000000
C      -0.0000000000      0.7383231586      0.0000000000
C       0.0000000000     -0.7383231586      0.0000000000
C      -1.2651950756      1.4678336611     -0.0000000000
C      -1.2651950756     -1.4678336611      0.0000000000
C       2.5117214986      0.7533333682     -0.0000000000
C       2.5117214986     -0.7533333682      0.0000000000
C       1.2651950756      1.4678336611     -0.0000000000
C       1.2651950756     -1.4678336611     -0.0000000000
C       5.0486505954      0.7530632945      0.0000000000
C       5.0486505954     -0.7530632945      0.0000000000
C       3.8224631275      1.4692911609      0.0000000000
C       3.8224631275     -1.4692911609      0.0000000000
H      -5.9970730292      1.2741311011     -0.0000000000
H      -5.9970730292     -1.2741311011      0.0000000000
H      -3.8143354288      2.5442858376     -0.0000000000
H      -3.8143354288     -2.5442858376      0.0000000000
H      -1.2610597758      2.5438847712      0.0000000000
H      -1.2610597758     -2.5438847712     -0.0000000000
H       1.2610597758      2.5438847712     -0.0000000000
H       1.2610597758     -2.5438847712     -0.0000000000
H       5.9970730292      1.2741311011     -0.0000000000
H       5.9970730292     -1.2741311011     -0.0000000000
H       3.8143354288      2.5442858376     -0.0000000000
H       3.8143354288     -2.5442858376      0.0000000000
30
step 7  E = -35.96841459 Ha  |g|max = 0.008176
C      -5.0644547063      0.7448930689     -0.0000000000
C      -5.0644547063     -0.7448930689      0.0000000000
C      -2.5299070255      0.7481574797      0.0000000000
C      -2.5299070255     -0.7481574797      0.0000000000
C      -3.8482904609      1.4590929510      0.0000000000
C      -3.8482904609     -1.4590929510      0.0000000000
C      -0.0000000000      0.7492069187      0.0000000000
C       0.0000000000     -0.7492069187      0.0000000000
C      -1.2709897757      1.4638903852     -0.0000000000
C      -1.2709897757     -1.4638903852      0.0000000000
C       2.5299070255      0.7481574797     -0.0000000000
C       2.5299070255     -0.7481574797      0.0000000000
C       1.2709897757      1.4638903852     -0.0000000000
C       1.2709897757     -1.4638903852     -0.0000000000
C       5.0644547062      0.7448930689      0.0000000000
C       5.0644547063     -0.7448930689      0.0000000000
C       3.8482904609      1.4590929510      0.0000000000
C       3.8482904609     -1.4590929510      0.0000000000
H      -6.0080386385      1.2692703918     -0.0000000000
H      -6.0080386385     -1.2692703918      0.0000000000
H      -3.8398339025      2.5400018476     -0.0000000000
H      -3.8398339025     -2.5400018476      0.0000000000
H      -1.2683531422      2.5359147070     -0.0000000000
H      -1.2683531422     -2.5359147070     -0.0000000000
H       1.2683531422      2.5359147070     -0.0000000000
H       1.2683531422     -2.5359147070     -0.0000000000
H       6.0080386385      1.2692703918     -0.0000000000
H       6.0080386385     -1.2692703918     -0.0000000000
H       3.8398339025      2.5400018476     -0.0000000000
H       3.8398339025     -2.5400018476      0.0000000000
30
step 8  E = -35.96900237 Ha  |g|max = 0.004047
C      -5.0708858635      0.7427169633     -0.0000000000
C      -5.0708858635     -0.7427169633      0.0000000000
C      -2.5377160360      0.7478079857     -0.0000000000
C      -2.5377160360     -0.7478079857      0.0000000000
C      -3.8530860787      1.4594283434      0.0000000000
C      -3.8530860787     -1.4594283434      0.0000000000
C      -0.0000000000      0.7496947217      0.0000000000
C       0.0000000000     -0.7496947217      0.0000000000
C      -1.2807736242      1.4616780953     -0.0000000000
C      -1.2807736242     -1.4616780953      0.0000000000
C       2.5377160360      0.7478079857     -0.0000000000
C       2.5377160360     -0.7478079857      0.0000000000
C       1.2807736242      1.4616780953     -0.0000000000
C       1.2807736242     -1.4616780953     -0.0000000000
C       5.0708858635      0.7427169633      0.0000000000
C       5.0708858635     -0.7427169633      0.0000000000
C       3.8530860787      1.4594283434      0.0000000000
C       3.8530860787     -1.4594283434      0.0000000000
H      -6.0073767061      1.2655991448     -0.0000000000
H      -6.0073767061     -1.2655991448      0.0000000000
H      -3.8493744895      2.5334734242     -0.0000000000
H      -3.8493744895     -2.5334734242      0.0000000000
H      -1.2708098788      2.5346825541     -0.0000000000
H      -1.2708098788     -2.5346825541     -0.0000000000
H       1.2708098788      2.5346825541     -0.0000000000
H       1.2708098788     -2.5346825541     -0.0000000000
H       6.0073767061      1.2655991448     -0.0000000000
H       6.0073767061     -1.2655991448     -0.0000000000
H       3.8493744895      2.5334734242     -0.0000000000
H       3.8493744895     -2.5334734242      0.0000000000
30
step 9  E = -35.96910140 Ha  |g|max = 0.001105
C      -5.0688544962      0.7432336305     -0.0000000000
C      -5.0688544962     -0.7432336305      0.0000000000
C      -2.5405891656      0.7489273103     -0.0000000000
C      -2.5405891656     -0.7489273103      0.0000000000
C      -3.8537049399      1.4579795837      0.0000000000
C      -3.8537049399     -1.4579795837      0.0000000000
C       0.0000000000      0.7479132337      0.0000000000
C      -0.0000000000     -0.7479132337      0.0000000000
C      -1.2823682184      1.4609494310     -0.0000000000
C      -1.2823682184     -1.4609494309      0.0000000000
C       2.5405891656      0.7489273103      0.0000000000
C       2.5405891656     -0.7489273103      0.0000000000
C       1.2823682184      1.4609494309     -0.0000000000
C       1.2823682184     -1.4609494309     -0.0000000000
C       5.0688544962      0.7432336305      0.0000000000
C       5.0688544962     -0.7432336305      0.0000000000
C       3.8537049399      1.4579795837      0.0000000000
C       3.8537049399     -1.4579795837      0.0000000000
H      -6.0076354750      1.2650816516     -0.0000000000
H      -6.0076354750     -1.2650816516      0.0000000000
H      -3.8520209527      2.5320935519     -0.0000000000
H      -3.8520209527     -2.5320935519      0.0000000000
H      -1.2721336628      2.5349103873     -0.0000000000
H      -1.2721336628     -2.5349103873     -0.0000000000
H       1.2721336628      2.5349103873     -0.0000000000
H       1.2721336628     -2.5349103873     -0.0000000000
H       6.0076354750      1.2650816516     -0.0000000000
H       6.0076354750     -1.2650816516     -0.0000000000
H       3.8520209527      2.5320935519     -0.0000000000
H       3.8520209527     -2.5320935519      0.0000000000
30
step 10  E = -35.96914689 Ha  |g|max = 0.001381
C      -5.0667519702      0.7429096201     -0.0000000000
C      -5.0667519702     -0.7429096201     -0.0000000000
C      -2.5406374057      0.7477176771     -0.0000000000
C      -2.5406374057     -0.7477176771      0.0000000000
C      -3.8532164846      1.4590028995     -0.0000000000
C      -3.8532164846     -1.4590028995      0.0000000000
C      -0.0000000000      0.7480020869      0.0000000000
C      -0.0000000000     -0.7480020869      0.0000000000
C      -1.2817715459      1.4603652487     -0.0000000000
C      -1.2817715459     -1.4603652487      0.0000000000
C       2.5406374057      0.7477176771      0.0000000000
C       2.5406374057     -0.7477176771      0.0000000000
C       1.2817715459      1.4603652487     -0.0000000000
C       1.2817715459     -1.4603652487     -0.0000000000
C       5.0667519702      0.7429096201      0.0000000000
C       5.0667519702     -0.7429096201      0.0000000000
C       3.8532164846      1.4590028995      0.0000000000
C       3.8532164846     -1.4590028995      0.0000000000
H      -6.0066398957      1.2643326446     -0.0000000000
H      -6.0066398957     -1.2643326447      0.0000000000
H      -3.8554706238      2.5308564979     -0.0000000000
H      -3.8554706238     -2.5308564979      0.0000000000
H      -1.2748462918      2.5347452380     -0.0000000000
H      -1.2748462918     -2.5347452380     -0.0000000000
H       1.2748462918      2.5347452380     -0.0000000000
H       1.2748462918     -2.5347452380     -0.0000000000
H       6.0066398957      1.2643326446     -0.0000000000
H       6.0066398957     -1.2643326447     -0.0000000000
H       3.8554706238      2.5308564979     -0.0000000000
H       3.8554706238     -2.5308564979      0.0000000000
30
step 11  E = -35.96920371 Ha  |g|max = 0.000983
C      -5.0652035780      0.7429310749      0.0000000000
C      -5.0652035780     -0.7429310749     -0.0000000000
C      -2.5390170432      0.7481095350     -0.0000000000
C      -2.5390170432     -0.7481095350      0.0000000000
C      -3.8516273177      1.4584301149     -0.0000000000
C      -3.8516273177     -1.4584301149      0.0000000000
C      -0.0000000000      0.7488309357     -0.0000000000
C      -0.0000000000     -0.7488309357     -0.0000000000
C      -1.2817165796      1.4599646382     -0.0000000000
C      -1.2817165796     -1.4599646382      0.0000000000
C       2.5390170432      0.7481095350      0.0000000000
C       2.5390170432     -0.7481095350      0.0000000000
C       1.2817165796      1.4599646382     -0.0000000000
C       1.2817165796     -1.4599646382      0.0000000000
C       5.0652035780      0.7429310749      0.0000000000
C       5.0652035780     -0.7429310749      0.0000000000
C       3.8516273177      1.4584301149      0.0000000000
C       3.8516273177     -1.4584301149      0.0000000000
H      -6.0038037555      1.2626280655     -0.0000000000
H      -6.0038037554     -1.2626280655      0.0000000000
H      -3.8605627253      2.5315721940     -0.0000000000
H      -3.8605627253     -2.5315721940      0.0000000000
H      -1.2792579357      2.5338304819     -0.0000000000
H      -1.2792579357     -2.5338304819     -0.0000000000
H       1.2792579357      2.5338304819     -0.0000000000
H       1.2792579357     -2.5338304819     -0.0000000000
H       6.0038037554      1.2626280655      0.0000000000
H       6.0038037555     -1.2626280655     -0.0000000000
H       3.8605627253      2.5315721940      0.0000000000
H       3.8605627253     -2.5315721940      0.0000000000
30
step 12  E = -35.96921138 Ha  |g|max = 0.000430
C      -5.0645772367      0.7422648035      0.0000000000
C      -5.0645772367     -0.7422648035     -0.0000000000
C      -2.5386324606      0.7481894126     -0.0000000000
C      -2.5386324606     -0.7481894126      0.0000000000
C      -3.8515714675      1.4585689089     -0.0000000000
C      -3.8515714675     -1.4585689089      0.0000000000
C      -0.0000000000      0.7483124916     -0.0000000000
C      -0.0000000000     -0.7483124916     -0.0000000000
C      -1.2818218819      1.4604335503     -0.0000000000
C      -1.2818218819     -1.4604335503      0.0000000000
C       2.5386324606      0.7481894126      0.0000000000
C       2.5386324606     -0.7481894126      0.0000000000
C       1.2818218819      1.4604335503     -0.0000000000
C       1.2818218819     -1.4604335503      0.0000000000
C       5.0645772367      0.7422648035     -0.0000000000
C       5.0645772367     -0.7422648035      0.0000000000
C       3.8515714675      1.4585689089      0.0000000000
C       3.8515714675     -1.4585689089      0.0000000000
H      -6.0034523306      1.2625733225     -0.0000000000
H      -6.0034523306     -1.2625733225      0.0000000000
H      -3.8613384241      2.5319690872     -0.0000000000
H      -3.8613384241     -2.5319690872      0.0000000000
H      -1.2801748777      2.5336662793     -0.0000000000
H      -1.2801748777     -2.5336662793     -0.0000000000
H       1.2801748777      2.5336662793     -0.0000000000
H       1.2801748777     -2.5336662793     -0.0000000000
H       6.0034523306      1.2625733225      0.0000000000
H       6.0034523306     -1.2625733225     -0.0000000000
H       3.8613384241      2.5319690872      0.0000000000
H       3.8613384241     -2.5319690872      0.0000000000
30
step 13  E = -35.96921619 Ha  |g|max = 0.000397
C      -5.0640379858      0.7422828362      0.0000000000
C      -5.0640379858     -0.7422828362      0.0000000000
C      -2.5386379389      0.7485384765      0.0000000000
C      -2.5386379389     -0.7485384765      0.0000000000
C      -3.8516000524      1.4595566026     -0.0000000000
C      -3.8516000524     -1.4595566026      0.0000000000
C       0.0000000000      0.7484310531     -0.0000000000
C       0.0000000000     -0.7484310531      0.0000000000
C      -1.2817110843      1.4606650178     -0.0000000000
C      -1.2817110843     -1.4606650178      0.0000000000
C       2.5386379389      0.7485384765      0.0000000000
C       2.5386379389     -0.7485384765      0.0000000000
C       1.2817110843      1.4606650178     -0.0000000000
C       1.2817110843     -1.4606650178     -0.0000000000
C       5.0640379858      0.7422828362      0.0000000000
C       5.0640379858     -0.7422828362      0.0000000000
C       3.8516000524      1.4595566026      0.0000000000
C       3.8516000524     -1.4595566026      0.0000000000
H      -6.0028578487      1.2627315527     -0.0000000000
H      -6.0028578487     -1.2627315527      0.0000000000
H      -3.8615534888      2.5327152435     -0.0000000000
H      -3.8615534888     -2.5327152435      0.0000000000
H      -1.2812323868      2.5346213289     -0.0000000000
H      -1.2812323868     -2.5346213289     -0.0000000000
H       1.2812323868      2.5346213289     -0.0000000000
H       1.2812323868     -2.5346213289     -0.0000000000
H       6.0028578487      1.2627315527      0.0000000000
H       6.0028578487     -1.2627315527     -0.0000000000
H       3.8615534888      2.5327152435      0.0000000000
H       3.8615534888     -2.5327152435      0.0000000000
30
step 14  E = -35.96921838 Ha  |g|max = 0.000183
C      -5.0638211373      0.7426005603     -0.0000000000
C      -5.0638211373     -0.7426005603      0.0000000000
C      -2.5387885626      0.7485392916      0.0000000000
C      -2.5387885626     -0.7485392916      0.0000000000
C      -3.8514269061      1.4597823522     -0.0000000000
C      -3.8514269061     -1.4597823522      0.0000000000
C       0.0000000000      0.7486288766     -0.0000000000
C       0.0000000000     -0.7486288766      0.0000000000
C      -1.2818268644      1.4611247116     -0.0000000000
C      -1.2818268644     -1.4611247116      0.0000000000
C       2.5387885626      0.7485392916      0.0000000000
C       2.5387885626     -0.7485392916      0.0000000000
C       1.2818268644      1.4611247116     -0.0000000000
C       1.2818268644     -1.4611247116     -0.0000000000
C       5.0638211373      0.7426005603      0.0000000000
C       5.0638211373     -0.7426005603     -0.0000000000
C       3.8514269061      1.4597823522      0.0000000000
C       3.8514269061     -1.4597823522      0.0000000000
H      -6.0025004731      1.2628060502     -0.0000000000
H      -6.0025004731     -1.2628060502      0.0000000000
H      -3.8615434504      2.5333605452     -0.0000000000
H      -3.8615434504     -2.5333605452      0.0000000000
H      -1.2817387954      2.5349368746     -0.0000000000
H      -1.2817387954     -2.5349368746     -0.0000000000
H       1.2817387954      2.5349368746     -0.0000000000
H       1.2817387954     -2.5349368746     -0.0000000000
H       6.0025004731      1.2628060502     -0.0000000000
H       6.0025004731     -1.2628060502     -0.0000000000
H       3.8615434504      2.5333605452      0.0000000000
H       3.8615434504     -2.5333605452      0.0000000000
30
step 15  E = -35.96921887 Ha  |g|max = 0.000148
C      -5.0637009066      0.7425196632     -0.0000000000
C      -5.0637009066     -0.7425196632      0.0000000000
C      -2.5387239048      0.7484726141      0.0000000000
C      -2.5387239048     -0.7484726141      0.0000000000
C      -3.8513314008      1.4598949703     -0.0000000000
C      -3.8513314008     -1.4598949703      0.0000000000
C       0.0000000000      0.7488238836     -0.0000000000
C       0.0000000000     -0.7488238836     -0.0000000000
C      -1.2820143137      1.4612128709     -0.0000000000
C      -1.2820143137     -1.4612128709      0.0000000000
C       2.5387239048      0.7484726141      0.0000000000
C       2.5387239048     -0.7484726141      0.0000000000
C       1.2820143137      1.4612128709     -0.0000000000
C       1.2820143137     -1.4612128709     -0.0000000000
C       5.0637009066      0.7425196632      0.0000000000
C       5.0637009066     -0.7425196632     -0.0000000000
C       3.8513314008      1.4598949703      0.0000000000
C       3.8513314008     -1.4598949703      0.0000000000
H      -6.0024585517      1.2629030566     -0.0000000000
H      -6.0024585517     -1.2629030566      0.0000000000
H      -3.8614080342      2.5335442674     -0.0000000000
H      -3.8614080342     -2.5335442674      0.0000000000
H      -1.2818718177      2.5349928719     -0.0000000000
H      -1.2818718177     -2.5349928719     -0.0000000000
H       1.2818718177      2.5349928719     -0.0000000000
H       1.2818718177     -2.5349928719     -0.0000000000
H       6.0024585517      1.2629030566      0.0000000000
H       6.0024585517     -1.2629030566     -0.0000000000
H       3.8614080342      2.5335442674      0.0000000000
H       3.8614080342     -2.5335442674      0.0000000000
30
step 16  E = -35.96921948 Ha  |g|max = 0.000222
C      -5.0635000551      0.7425964746     -0.0000000000
C      -5.0635000551     -0.7425964746      0.0000000000
C      -2.5386741008      0.7485564066     -0.0000000000
C      -2.5386741008     -0.7485564066      0.0000000000
C      -3.8510526305      1.4600669654      0.0000000000
C      -3.8510526305     -1.4600669654      0.0000000000
C      -0.0000000000      0.7488287196     -0.0000000000
C       0.0000000000     -0.7488287196     -0.0000000000
C      -1.2820127372      1.4610636542     -0.0000000000
C      -1.2820127371     -1.4610636542      0.0000000000
C       2.5386741008      0.7485564066      0.0000000000
C       2.5386741008     -0.7485564066      0.0000000000
C       1.2820127372      1.4610636542     -0.0000000000
C       1.2820127371     -1.4610636542     -0.0000000000
C       5.0635000551      0.7425964746     -0.0000000000
C       5.0635000551     -0.7425964746      0.0000000000
C       3.8510526305      1.4600669654      0.0000000000
C       3.8510526305     -1.4600669654      0.0000000000
H      -6.0022547678      1.2630960158     -0.0000000000
H      -6.0022547678     -1.2630960158      0.0000000000
H      -3.8606413670      2.5336431430     -0.0000000000
H      -3.8606413670     -2.5336431430      0.0000000000
H      -1.2821638840      2.5350586041     -0.0000000000
H      -1.2821638840     -2.5350586041     -0.0000000000
H       1.2821638840      2.5350586041     -0.0000000000
H       1.2821638840     -2.5350586041      0.0000000000
H       6.0022547678      1.2630960158      0.0000000000
H       6.0022547678     -1.2630960158     -0.0000000000
H       3.8606413670      2.5336431430      0.0000000000
H       3.8606413670     -2.5336431430      0.0000000000
30
step 17  E = -35.96922007 Ha  |g|max = 0.000164
C      -5.0632653458      0.7426900752     -0.0000000000
C      -5.0632653458     -0.7426900752      0.0000000000
C      -2.5386329667      0.7484529084     -0.0000000000
C      -2.5386329667     -0.7484529084      0.0000000000
C      -3.8508523223      1.4601295541      0.0000000000
C      -3.8508523223     -1.4601295541     -0.0000000000
C       0.0000000000      0.7487017785     -0.0000000000
C       0.0000000000     -0.7487017785     -0.0000000000
C      -1.2819273926      1.4611569880     -0.0000000000
C      -1.2819273926     -1.4611569880      0.0000000000
C       2.5386329667      0.7484529084     -0.0000000000
C       2.5386329667     -0.7484529084      0.0000000000
C       1.2819273926      1.4611569880     -0.0000000000
C       1.2819273926     -1.4611569880      0.0000000000
C       5.0632653458      0.7426900752     -0.0000000000
C       5.0632653458     -0.7426900752      0.0000000000
C       3.8508523223      1.4601295541      0.0000000000
C       3.8508523223     -1.4601295541      0.0000000000
H      -6.0019909279      1.2632610770     -0.0000000000
H      -6.0019909279     -1.2632610770      0.0000000000
H      -3.8598074816      2.5337621414     -0.0000000000
H      -3.8598074816     -2.5337621414      0.0000000000
H      -1.2824398134      2.5349553953     -0.0000000000
H      -1.2824398134     -2.5349553953      0.0000000000
H       1.2824398134      2.5349553953     -0.0000000000
H       1.2824398134     -2.5349553953      0.0000000000
H       6.0019909279      1.2632610770      0.0000000000
H       6.0019909279     -1.2632610770     -0.0000000000
H       3.8598074816      2.5337621414      0.0000000000
H       3.8598074816     -2.5337621414     -0.0000000000
30
step 18  E = -35.96922027 Ha  |g|max = 0.000071
C      -5.0631870983      0.7426590952     -0.0000000000
C      -5.0631870983     -0.7426590952      0.0000000000
C      -2.5384942295      0.7483915492     -0.0000000000
C      -2.5384942295     -0.7483915492      0.0000000000
C      -3.8508165244      1.4600803872      0.0000000000
C      -3.8508165244     -1.4600803872      0.0000000000
C       0.0000000000      0.7488294779     -0.0000000000
C       0.0000000000     -0.7488294779     -0.0000000000
C      -1.2819330196      1.4611447500     -0.0000000000
C      -1.2819330196     -1.4611447500     -0.0000000000
C       2.5384942295      0.7483915492     -0.0000000000
C       2.5384942295     -0.7483915492     -0.0000000000
C       1.2819330196      1.4611447500     -0.0000000000
C       1.2819330196     -1.4611447500      0.0000000000
C       5.0631870983      0.7426590952     -0.0000000000
C       5.0631870983     -0.7426590952      0.0000000000
C       3.8508165244      1.4600803872      0.0000000000
C       3.8508165244     -1.4600803872      0.0000000000
H      -6.0018383863      1.2632775976     -0.0000000000
H      -6.0018383863     -1.2632775976      0.0000000000
H      -3.8594917416      2.5337817070     -0.0000000000
H      -3.8594917416     -2.5337817070      0.0000000000
H      -1.2824858139      2.5349035051     -0.0000000000
H      -1.2824858139     -2.5349035051      0.0000000000
H       1.2824858139      2.5349035051      0.0000000000
H       1.2824858139     -2.5349035051      0.0000000000
H       6.0018383863      1.2632775976      0.0000000000
H       6.0018383863     -1.2632775976     -0.0000000000
H       3.8594917416      2.5337817071      0.0000000000
H       3.8594917416     -2.5337817070     -0.0000000000
