12

C	1.0860163726750995	1.02002833076889	-1.3643043008673894	
C	1.9950983644090956	0.5158300896012686	-0.42385414149523354	
C	1.8076691115507892	0.7748944574521867	0.941017397612355	
C	0.7111197409781611	1.5381656289237884	1.3654198132546094	
C	-0.19801353231967656	2.042304341562949	0.42498678735820283	
C	-0.010539919238015576	1.783279743262714	-0.9398850262765648	
H	1.2317609091357995	0.8187050354063524	-2.425351156537264	
H	2.847632665087473	-0.07742492061505574	-0.7537494213112199	
H	2.514432663120141	0.3830269502299489	1.6721227648724617	
H	0.5654574360276574	1.7396259780668564	2.426453335841451	
H	-1.0504185546547247	2.635747893922386	0.7548719390136847	
H	-0.7171876568718029	2.1753295235177115	-1.671008100265113	
