18

C	-1.434713783208412	0.3321765176396103	-0.2223619754261436	
C	-1.002517558928589	-1.0761582071254496	0.23442107453434732	
C	0.4299890866921466	-1.4064570533301395	-0.23213630891802953	
C	1.4355335133862615	-0.33059589085599816	0.22639132996047373	
C	1.003381521440697	1.0777526144056966	-0.23039781398829778	
C	-0.42916289308480526	1.408084407461487	0.2360509991066229	
H	-2.433749716945833	0.5624967886136357	0.1753875042583347	
H	-1.5134872155468044	0.35103658003047095	-1.3194340667917939	
H	-1.7042826990748745	-1.8265995494421179	-0.15759966978283688	
H	-1.0504688324999654	-1.133783692839643	1.3319268009046747	
H	0.44816897263995825	-1.477796551577787	-1.3297336157768727	
H	0.731750102260595	-2.3890507229798215	0.15872729306126382	
H	2.4345989043880554	-0.5609076456212284	-0.17128820774638875	
H	1.5141585719030537	-0.3495290610602911	1.3234753708775526	
H	1.051445242452967	1.1354094276712818	-1.3278949409301113	
H	1.705096268564788	1.828163815924289	0.1617819246315788	
H	-0.7309073122035058	2.39062700832718	-0.1549520881898554	
H	-0.4474091722357607	1.4796802147588255	1.3336243902154623	
