9

C	0.875346150665725	0.21117568582978608	0.13763689656834222	
C	-0.46730219240113124	-0.5197526596690971	0.04699584723447014	
O	-1.3896451810295334	0.16945802828046816	-0.8030504669016123	
H	0.7352142812862066	1.2246191735136724	0.5292050752149546	
H	1.5627825188546804	-0.321431035214608	0.8018601397395364	
H	1.3431252504123343	0.28983575377813003	-0.8487779460443833	
H	-0.9117409145489275	-0.6308634239302161	1.0560839571001517	
H	-0.33643095633763453	-1.5273540832213133	-0.3747676152638545	
H	-1.411348966901712	1.1043125606332116	-0.5451858876476212	
