20

O	-0.5080983679321455	-0.1639683692980171	1.5784803227890483	
N	0.5438547567215098	-1.1455015752870281	-0.6290933454742685	
C	0.00206732476340074	0.0007348935665025455	-1.2954672918712944	
C	-0.004504414901304306	1.249681129459734	-0.3546116366198771	
C	-0.9174404587618527	1.0289527812777008	0.8672526516361386	
C	-2.402200263180855	0.8185938776458148	0.5025307433699306	
C	-2.5676245121314474	-0.7112532023211445	0.526269407503629	
C	-1.549036867855925	-1.1587632884054162	1.579295746095211	
H	-0.19051181189762892	-1.7563854898781186	-0.2563752035064635	
H	-1.0357701080506656	-0.16579141991704904	-1.6570331467291834	
H	0.6394992110591026	0.2519992325601124	-2.166459609902041	
H	-0.3417007756031323	2.1300589383161594	-0.9195319940374423	
H	1.0210647731220968	1.4436923970220479	-0.015598890426502908	
H	-0.7927634929489428	1.8842876985774926	1.559582620860056	
H	-2.655582717477829	1.2515860691184961	-0.47342745627677657	
H	-3.053144794496462	1.2869577470824949	1.2533950594386167	
H	-2.2937329569489893	-1.1228862309681327	-0.45886314124793676	
H	-3.5918515687104353	-1.0282092740376054	0.7567368709340578	
H	-1.093654842518052	-2.137131741146307	1.3506740567678936	
H	-1.9951912156505802	-1.2076481128678618	2.590436007397172	
