17

C	-1.5216531641770399	0.7688180502405658	0.09393402011283346	
C	-0.22803556491761542	1.4361399451437729	-0.40440044621612303	
O	0.8921231064171498	1.097990871514924	0.44101436883865075	
C	1.674436939941307	0.0006746190488725201	-0.005687164437138883	
O	0.8884511199488915	-1.0957827396883586	-0.4480304529015082	
C	-0.22736949893196234	-1.4327003893357892	0.4035897579753128	
C	-1.5229990348901492	-0.7639565706428514	-0.08756093936142643	
H	-2.3807517343181384	1.2002684496832257	-0.43938964184702134	
H	-1.6519572151859618	1.0129182468032865	1.157725443308147	
H	-0.33246928589192437	2.5329085493488193	-0.3670444634270376	
H	0.00036544349980838995	1.1446970851963534	-1.4424862223415449	
H	2.3154762885966846	-0.30176298250492956	0.8474215541342606	
H	2.3110601135426934	0.3024153381138132	-0.8623418314973544	
H	0.007109075251938324	-1.1415072370527153	1.44038999526121	
H	-0.33321456253494847	-2.529353464609581	0.3668203741840972	
H	-2.3795977035766325	-1.1944639139667312	0.45052480890371654	
H	-1.659467322774054	-1.0079088572926311	-1.150613160689077	
