14

C	-1.3540359356535285	-0.7940834725843383	-0.19434214398336225	
C	-2.4773808096788494	0.17305976760248204	0.2114397717383186	
O	-2.244466416702736	1.4855510624820703	-0.31833953657090286	
O	-0.998915180373885	2.0166470651272537	0.2980270607142466	
C	0.10734207230064624	1.2610306658062584	-0.21460117292831715	
C	0.014751627351514114	-0.21269227565514265	0.21142295328765853	
H	-1.3815961590724588	-0.94765754840373	-1.2824275135980086	
H	-1.5121864322907714	-1.7742229645379797	0.27641584563951066	
H	-2.572227690146631	0.23495960868603488	1.3097248135618882	
H	-3.445228273435056	-0.14003084080598052	-0.20533704024238866	
H	1.0041773640648148	1.742279454207824	0.20078228471082882	
H	0.1356452981169247	1.356708366279794	-1.314192987196853	
H	0.13757232586778317	-0.2846987067276073	1.3013791490011049	
H	0.8303188482522414	-0.7893401627769305	-0.24642602433371347	
