54

C	-3.1472720064777593	0.06315260529360837	0.11759571207993424	
C	-4.271044880174893	-0.9959619873860059	0.05413542222771902	
C	-4.514043515641624	-1.632533709656978	1.4334763692154362	
C	-4.79629323512512	-0.5766267871277265	2.4998971364516507	
O	-5.569064566975233	-0.7966283602683332	3.427264584087924	
C	-4.030613108524054	0.6916520153376994	2.3954773964207887	
C	-3.255971137891439	0.9774879571697883	1.3251720084635796	
C	-2.3395257688839433	2.162565143229476	1.197916949968546	
C	-1.2054636511954786	2.376737904128572	2.144873553071637	
C	-0.9424495363635993	1.8178238953966772	0.7780733506755675	
C	-0.5784019728985322	0.3217414736155036	0.6568521556776001	
C	-1.7361548619809066	-0.6110021914781273	0.10765507047375195	
C	-1.438734487336202	-1.1532487292505809	-1.3145155985727874	
C	-0.13993664718128832	-1.9919147184856605	-1.395110663565534	
C	0.953750401214155	-1.4175484870481032	-0.4492397558241606	
C	0.688259330042989	0.10869428593974854	-0.20429156157806877	
C	2.0239893576005397	0.6324970790056499	0.3635796928358432	
C	3.0258818267594862	1.1069518304485868	-0.6384372338898696	
C	3.102864986435454	-0.29141472112148414	-0.11600674985116985	
C	2.4497320738189643	-1.4269418463185761	-0.9558191709566871	
C	2.645776011618421	-1.2652604215077596	-2.4864292953821527	
C	3.789129387898349	-2.2245120403770655	-2.8436092315619237	
C	3.8644115303676894	-3.1575278892981613	-1.649555843875778	
O	4.513877924851879	-4.181874674735971	-1.5547976707243398	
O	3.0917060886590413	-2.698450473891982	-0.6404513892747341	
C	0.9079376676766804	-2.175064204069386	0.9039735494953354	
H	-3.2127800822239347	0.6982439509454316	-0.7837376993700812	
H	-3.9941333869140068	-1.7665316481541846	-0.6858834505187839	
H	-5.197722228059685	-0.5239594768366002	-0.3019544530809635	
H	-3.6037020365809815	-2.17254443654358	1.7426873036222186	
H	-5.330412421710789	-2.363135711771069	1.3935091872235137	
H	-4.077464619365527	1.373002734474233	3.2444487555415353	
H	-2.7955545187629363	3.0516880836013907	0.7529003737393634	
H	-1.106720697168335	1.7023293660844314	2.995552351562463	
H	-0.9031436845877485	3.402801421010815	2.352529539508723	
H	-0.4544865146826041	2.475264635435738	0.05453585034984149	
H	-0.3542018700743577	-0.04239279550153957	1.6752114360900099	
H	-1.7876892322136844	-1.4815031158095926	0.7919069549924582	
H	-1.3662486648271455	-0.30161527942576516	-2.0078618184950763	
H	-2.3013494265974894	-1.7588637986995388	-1.6403298885343598	
H	0.21951591612201724	-1.996389077994177	-2.4402591733395145	
H	-0.3449951531206379	-3.037171114156971	-1.1270885068469823	
H	0.5116500669154035	0.5797266587844466	-1.1887455479070348	
H	2.0407530550247475	1.0467755712233158	1.3725241844585867	
H	3.788193279941754	1.8133336841608616	-0.3107681735949004	
H	2.6997976786499507	1.2502090510560706	-1.6736587570463206	
H	3.9400145397362554	-0.5700671304680859	0.5243999397053806	
H	2.8582940644638066	-0.2167282467483638	-2.7473236900970885	
H	1.7200265009522926	-1.5499419938357515	-3.0178124362882386	
H	4.746742170275945	-1.697430062401259	-2.951579112073548	
H	3.6150482036151024	-2.774553590633959	-3.7757702248939657	
H	-0.10401551102850996	-2.1222220566255845	1.3298927217827294	
H	1.6123695903942792	-1.7295606238086576	1.6148169977678992	
H	1.1727137715348326	-3.2274339449062737	0.762751549655418	
