10

C	0.5510807410878658	-1.15919418112918	-0.05392088874506087	
C	0.8568935668560824	0.1946086423618452	-0.08489698968796916	
N	-0.31764766175920933	0.8895407066935375	0.0009184365176591112	
C	-1.3728465179718543	0.024040271918170913	0.08639368876164838	
C	-0.8647168289172619	-1.2674983771123798	0.054841750805065516	
H	1.2582193308281648	-1.9792403518299575	-0.10332860085743018	
H	1.8111665360851261	0.7026496714921568	-0.1606502802339694	
H	-0.39487293238415055	1.8992874881106805	0.0011389784163941417	
H	-2.3932769174260162	0.3810214254194681	0.16233691263925742	
H	-1.438924497598755	-2.1855636363243587	0.1038679923844044	
