34

C	-3.445433953207409	-1.5756612154353125	-2.04937069971304	
C	-1.9163562492819992	-1.4768475357135853	-1.949996397926004	
C	-1.4019805627623119	-1.7164956852548443	-0.5151756297983034	
C	0.13362224470141243	-1.6202184008698193	-0.42333999719991117	
C	0.6487425599323441	-1.8588979412478865	1.0081241274686348	
N	2.1272377000755665	-1.752493361884968	1.053010011863769	
N	2.684091621419784	-0.622416343183895	1.0861177351069136	
C	1.8585571427568248	0.6083062357867386	1.0783703761782402	
C	2.71322230405895	1.8559471643289276	1.3477208235687708	
C	1.8763652381880993	3.1511997011432777	1.3308156147184633	
C	2.733273980490248	4.40455912752891	1.6045506972614845	
C	1.9045918127694608	5.697208970688064	1.5913528424849184	
H	-3.77905205948196	-1.4017579632569213	-3.077704431289825	
H	-3.9274101898930995	-0.8332078829516684	-1.4042957164251813	
H	-3.793105208554051	-2.5674976299168195	-1.7412049077114846	
H	-1.5887759579083327	-0.4839759718780868	-2.2922503426508687	
H	-1.455507657949712	-2.2105355648171323	-2.627690993561137	
H	-1.728345067182875	-2.708718925148014	-0.17019073832698325	
H	-1.8578612410551933	-0.9820312167559203	0.16536195094700668	
H	0.4646347883231293	-0.6202015927407173	-0.7556428612467477	
H	0.5921110386350042	-2.351373234813814	-1.1037480132817556	
H	0.3699046564541762	-2.8664733933873245	1.3528180221760753	
H	0.20397155521282542	-1.1140056603421906	1.6949622899445722	
H	1.0488413770017269	0.5053852765805118	1.8250195201929382	
H	1.361864329522863	0.6719193592968318	0.0922189961982194	
H	3.509592120972896	1.9238166598301052	0.5928025493876797	
H	3.210994976335662	1.7544903324983092	2.3227658052259295	
H	1.0778841061889872	3.08159039058512	2.0845065826516054	
H	1.378444650467838	3.253657393760387	0.35508906677188434	
H	3.5305041562761033	4.471050393946642	0.8495350175271345	
H	3.2318836856570536	4.297337660638204	2.5791991737893816	
H	1.421236121505314	5.841177994539376	0.61906789338351	
H	2.5398925934781693	6.5671053997339826	1.7882282814323749	
H	1.1215813816525413	5.666739285113226	2.3566433018526967	
