12
frame 0  E = -70.344908647687 eV
C      8.043438016310     5.885471591007     5.072752737454
C      8.658427439545     7.133698720932     5.174082040454
C      7.880421192268     8.287543580694     5.266923948694
C      6.488699107109     8.188617939609     5.265242156266
C      5.874155136552     6.939660588738     5.174190000807
C      6.651842445839     5.786086078759     5.070498163792
H      5.000000000000     6.882063492093     5.172736990657
H      6.000118942874     8.914749915804     5.314265014255
H      8.261673558380     9.074213029303     5.332368730333
H      9.532867101661     7.191871747998     5.171230214868
H      8.531035725124     5.159061140108     5.019169508853
H      6.270054214498     5.000000000000     5.000000000000
12
frame 1  E = -77.246553486281 eV
C      8.220480719612     6.044601181501     5.086066785950
C      8.835470142847     7.292828311426     5.187396088951
C      8.057463895570     8.446673171188     5.280237997191
C      6.665741810411     8.347747530103     5.278556204762
C      6.051197839854     7.098790179232     5.187504049303
C      6.828885149141     5.945215669253     5.083812212288
H      5.000000000000     7.029099702413     5.186232068052
H      6.078253235286     9.220589752977     5.338816968494
H      8.516491805128     9.392510922217     5.358335037391
H      9.886997343978     7.363111728311     5.184607575404
H      8.806897891149     5.171487791679     5.020667126732
H      6.369277200006     5.000000000000     5.000000000000
12
frame 2  E = -75.889187827819 eV
C      8.397523422914     6.203730771995     5.099380834446
C      9.012512846149     7.451957901920     5.200710137447
C      8.234506598872     8.605802761682     5.293552045687
C      6.842784513713     8.506877120596     5.291870253259
C      6.228240543156     7.257919769726     5.200818097800
C      7.005927852443     6.104345259747     5.097126260785
H      5.000000000000     7.176135912732     5.199727145447
H      6.156387527698     9.526429590149     5.363368922733
H      8.771310051877     9.710808815131     5.384301344448
H     10.241127586296     7.534351708623     5.197984935941
H      9.082760057174     5.183914443250     5.022164744611
H      6.468500185514     5.000000000000     5.000000000000
12
frame 3  E = -71.563214811657 eV
C      8.574566126216     6.362860362489     5.112694882943
C      9.189555549451     7.611087492414     5.214024185944
C      8.411549302174     8.764932352176     5.306866094183
C      7.019827217015     8.666006711090     5.305184301755
C      6.405283246458     7.417049360220     5.214132146296
C      7.182970555745     6.263474850241     5.110440309281
H      5.000000000000     7.323172123052     5.213222222842
H      6.234521820110     9.832269427321     5.387920876971
H      9.026128298625    10.029106708046     5.410267651505
H     10.595257828613     7.705591688936     5.211362296477
H      9.358622223199     5.196341094821     5.023662362490
H      6.567723171021     5.000000000000     5.000000000000
12
frame 4  E = -66.552746407408 eV
C      8.751608829518     6.521989952983     5.126008931439
C      9.366598252753     7.770217082908     5.227338234440
C      8.588592005476     8.924061942670     5.320180142680
C      7.196869920317     8.825136301584     5.318498350251
C      6.582325949760     7.576178950714     5.227446194793
C      7.360013259047     6.422604440735     5.123754357777
H      5.000000000000     7.470208333372     5.226717300237
H      6.312656112522    10.138109264493     5.412472831210
H      9.280946545374    10.347404600960     5.436233958563
H     10.949388070930     7.876831669248     5.224739657014
H      9.634484389225     5.208767746392     5.025159980369
H      6.666946156529     5.000000000000     5.000000000000
12
frame 5  E = -61.777400463563 eV
C      8.928651532820     6.681119543477     5.139322979936
C      9.543640956055     7.929346673402     5.240652282937
C      8.765634708778     9.083191533164     5.333494191176
C      7.373912623619     8.984265892078     5.331812398748
C      6.759368653062     7.735308541208     5.240760243289
C      7.537055962349     6.581734031229     5.137068406274
H      5.000000000000     7.617244543692     5.240212377632
H      6.390790404934    10.443949101665     5.437024785449
H      9.535764792122    10.665702493874     5.462200265620
H     11.303518313248     8.048071649560     5.238117017550
H      9.910346555250     5.221194397963     5.026657598248
H      6.766169142037     5.000000000000     5.000000000000
