2
frame 0  E = 11.709301726569 eV
C      5.000000000000     5.000000000000     5.000000000000
H      5.700000000000     5.000000000000     5.000000000000
2
frame 1  E = 8.015058913429 eV
C      5.000000000000     5.000000000000     5.000000000000
H      5.800000000000     5.000000000000     5.000000000000
2
frame 2  E = 6.058200658832 eV
C      5.000000000000     5.000000000000     5.000000000000
H      5.900000000000     5.000000000000     5.000000000000
2
frame 3  E = 5.119677258082 eV
C      5.000000000000     5.000000000000     5.000000000000
H      6.000000000000     5.000000000000     5.000000000000
2
frame 4  E = 4.770580502562 eV
C      5.000000000000     5.000000000000     5.000000000000
H      6.100000000000     5.000000000000     5.000000000000
2
frame 5  E = 4.759728697845 eV
C      5.000000000000     5.000000000000     5.000000000000
H      6.200000000000     5.000000000000     5.000000000000
2
frame 6  E = 4.936863766303 eV
C      5.000000000000     5.000000000000     5.000000000000
H      6.300000000000     5.000000000000     5.000000000000
2
frame 7  E = 5.221104914545 eV
C      5.000000000000     5.000000000000     5.000000000000
H      6.400000000000     5.000000000000     5.000000000000
2
frame 8  E = 5.557822224124 eV
C      5.000000000000     5.000000000000     5.000000000000
H      6.500000000000     5.000000000000     5.000000000000
2
frame 9  E = 5.934552995471 eV
C      5.000000000000     5.000000000000     5.000000000000
H      6.600000000000     5.000000000000     5.000000000000
2
frame 10  E = 6.287149402181 eV
C      5.000000000000     5.000000000000     5.000000000000
H      6.700000000000     5.000000000000     5.000000000000
2
frame 11  E = 6.628249593733 eV
C      5.000000000000     5.000000000000     5.000000000000
H      6.800000000000     5.000000000000     5.000000000000
2
frame 12  E = 6.950909085394 eV
C      5.000000000000     5.000000000000     5.000000000000
H      6.900000000000     5.000000000000     5.000000000000
2
frame 13  E = 7.250639402719 eV
C      5.000000000000     5.000000000000     5.000000000000
H      7.000000000000     5.000000000000     5.000000000000
