4
frame 0  E = -18.497355206369 eV
H      5.000000000000     5.000000000000     5.000000000000
C      5.800000000000     5.000000000000     5.000000000000
C      7.004438257191     5.000000000000     5.000000000000
H      7.804438257191     5.000000000000     5.000000000000
4
frame 1  E = -21.856094055612 eV
H      5.000000000000     5.000000000000     5.000000000000
C      5.900000000000     5.000000000000     5.000000000000
C      7.104438257191     5.000000000000     5.000000000000
H      8.004438257191     5.000000000000     5.000000000000
4
frame 2  E = -23.172743519948 eV
H      5.000000000000     5.000000000000     5.000000000000
C      6.000000000000     5.000000000000     5.000000000000
C      7.204438257191     5.000000000000     5.000000000000
H      8.204438257191     5.000000000000     5.000000000000
4
frame 3  E = -23.356029827368 eV
H      5.000000000000     5.000000000000     5.000000000000
C      6.100000000000     5.000000000000     5.000000000000
C      7.304438257191     5.000000000000     5.000000000000
H      8.404438257191     5.000000000000     5.000000000000
4
frame 4  E = -22.877694107085 eV
H      5.000000000000     5.000000000000     5.000000000000
C      6.200000000000     5.000000000000     5.000000000000
C      7.404438257191     5.000000000000     5.000000000000
H      8.604438257191     5.000000000000     5.000000000000
4
frame 5  E = -22.037346759618 eV
H      5.000000000000     5.000000000000     5.000000000000
C      6.300000000000     5.000000000000     5.000000000000
C      7.504438257191     5.000000000000     5.000000000000
H      8.804438257191     5.000000000000     5.000000000000
4
frame 6  E = -20.990068785169 eV
H      5.000000000000     5.000000000000     5.000000000000
C      6.400000000000     5.000000000000     5.000000000000
C      7.604438257191     5.000000000000     5.000000000000
H      9.004438257191     5.000000000000     5.000000000000
