5
frame 0  E = 8.787266463874 eV
C      5.308760000000     5.536520000000     5.217320000000
H      5.308280000000     5.536520000000     5.873240000000
H      5.928260000000     5.536520000000     5.001380000000
H      5.000000000000     6.073040000000     5.000000000000
H      5.000000000000     5.000000000000     5.000000000000
5
frame 1  E = -6.377120036015 eV
C      5.346677894737     5.602408421053     5.244008421053
H      5.346138947368     5.602408421053     5.980480000000
H      6.042256842105     5.602408421053     5.001549473684
H      5.000000000000     6.204816842105     5.000000000000
H      5.000000000000     5.000000000000     5.000000000000
5
frame 2  E = -15.431233587596 eV
C      5.384595789474     5.668296842105     5.270696842105
H      5.383997894737     5.668296842105     6.087720000000
H      6.156253684211     5.668296842105     5.001718947368
H      5.000000000000     6.336593684211     5.000000000000
H      5.000000000000     5.000000000000     5.000000000000
5
frame 3  E = -20.582083628643 eV
C      5.422513684211     5.734185263158     5.297385263158
H      5.421856842105     5.734185263158     6.194960000000
H      6.270250526316     5.734185263158     5.001888421053
H      5.000000000000     6.468370526316     5.000000000000
H      5.000000000000     5.000000000000     5.000000000000
5
frame 4  E = -23.204330211931 eV
C      5.460431578947     5.800073684211     5.324073684211
H      5.459715789474     5.800073684211     6.302200000000
H      6.384247368421     5.800073684211     5.002057894737
H      5.000000000000     6.600147368421     5.000000000000
H      5.000000000000     5.000000000000     5.000000000000
5
frame 5  E = -24.222833219991 eV
C      5.498349473684     5.865962105263     5.350762105263
H      5.497574736842     5.865962105263     6.409440000000
H      6.498244210526     5.865962105263     5.002227368421
H      5.000000000000     6.731924210526     5.000000000000
H      5.000000000000     5.000000000000     5.000000000000
5
frame 6  E = -24.169453683543 eV
C      5.536267368421     5.931850526316     5.377450526316
H      5.535433684211     5.931850526316     6.516680000000
H      6.612241052632     5.931850526316     5.002396842105
H      5.000000000000     6.863701052632     5.000000000000
H      5.000000000000     5.000000000000     5.000000000000
5
frame 7  E = -23.448119214114 eV
C      5.574185263158     5.997738947368     5.404138947368
H      5.573292631579     5.997738947368     6.623920000000
H      6.726237894737     5.997738947368     5.002566315789
H      5.000000000000     6.995477894737     5.000000000000
H      5.000000000000     5.000000000000     5.000000000000
5
frame 8  E = -22.331819843529 eV
C      5.612103157895     6.063627368421     5.430827368421
H      5.611151578947     6.063627368421     6.731160000000
H      6.840234736842     6.063627368421     5.002735789474
H      5.000000000000     7.127254736842     5.000000000000
H      5.000000000000     5.000000000000     5.000000000000
5
frame 9  E = -20.973798246397 eV
C      5.650021052632     6.129515789474     5.457515789474
H      5.649010526316     6.129515789474     6.838400000000
H      6.954231578947     6.129515789474     5.002905263158
H      5.000000000000     7.259031578947     5.000000000000
H      5.000000000000     5.000000000000     5.000000000000
5
frame 10  E = -19.496934890348 eV
C      5.687938947368     6.195404210526     5.484204210526
H      5.686869473684     6.195404210526     6.945640000000
H      7.068228421053     6.195404210526     5.003074736842
H      5.000000000000     7.390808421053     5.000000000000
H      5.000000000000     5.000000000000     5.000000000000
5
frame 11  E = -17.974648902684 eV
C      5.725856842105     6.261292631579     5.510892631579
H      5.724728421053     6.261292631579     7.052880000000
H      7.182225263158     6.261292631579     5.003244210526
H      5.000000000000     7.522585263158     5.000000000000
H      5.000000000000     5.000000000000     5.000000000000
5
frame 12  E = -16.485730711032 eV
C      5.763774736842     6.327181052632     5.537581052632
H      5.762587368421     6.327181052632     7.160120000000
H      7.296222105263     6.327181052632     5.003413684211
H      5.000000000000     7.654362105263     5.000000000000
H      5.000000000000     5.000000000000     5.000000000000
5
frame 13  E = -15.042074641597 eV
C      5.801692631579     6.393069473684     5.564269473684
H      5.800446315789     6.393069473684     7.267360000000
H      7.410218947368     6.393069473684     5.003583157895
H      5.000000000000     7.786138947368     5.000000000000
H      5.000000000000     5.000000000000     5.000000000000
5
frame 14  E = -13.693242722809 eV
C      5.839610526316     6.458957894737     5.590957894737
H      5.838305263158     6.458957894737     7.374600000000
H      7.524215789474     6.458957894737     5.003752631579
H      5.000000000000     7.917915789474     5.000000000000
H      5.000000000000     5.000000000000     5.000000000000
5
frame 15  E = -12.427615056489 eV
C      5.877528421053     6.524846315789     5.617646315789
H      5.876164210526     6.524846315789     7.481840000000
H      7.638212631579     6.524846315789     5.003922105263
H      5.000000000000     8.049692631579     5.000000000000
H      5.000000000000     5.000000000000     5.000000000000
5
frame 16  E = -11.272396497265 eV
C      5.915446315789     6.590734736842     5.644334736842
H      5.914023157895     6.590734736842     7.589080000000
H      7.752209473684     6.590734736842     5.004091578947
H      5.000000000000     8.181469473684     5.000000000000
H      5.000000000000     5.000000000000     5.000000000000
5
frame 17  E = -10.209899061545 eV
C      5.953364210526     6.656623157895     5.671023157895
H      5.951882105263     6.656623157895     7.696320000000
H      7.866206315789     6.656623157895     5.004261052632
H      5.000000000000     8.313246315789     5.000000000000
H      5.000000000000     5.000000000000     5.000000000000
5
frame 18  E = -9.253388789758 eV
C      5.991282105263     6.722511578947     5.697711578947
H      5.989741052632     6.722511578947     7.803560000000
H      7.980203157895     6.722511578947     5.004430526316
H      5.000000000000     8.445023157895     5.000000000000
H      5.000000000000     5.000000000000     5.000000000000
5
frame 19  E = -8.388757937879 eV
C      6.029200000000     6.788400000000     5.724400000000
H      6.027600000000     6.788400000000     7.910800000000
H      8.094200000000     6.788400000000     5.004600000000
H      5.000000000000     8.576800000000     5.000000000000
H      5.000000000000     5.000000000000     5.000000000000
