12
benzene, realistic distortion: 0.13 A skeleton noise + +5% stretch (seed 2)
C       1.4914269396     -0.0679572974     -0.0536982606
C       0.4160342403      1.5042913233      0.1487415634
C      -0.7757299688      1.3709242198      0.0365573871
C      -1.5388469687      0.1270837686     -0.0403723511
C      -0.7761721075     -1.3733084418      0.0591445493
C       0.7205292533     -1.1994418307     -0.0789341410
H       2.5751557035     -0.0626482013     -0.1377980814
H       0.8616360753      2.4739176617      0.3557023532
H      -1.3552080639      2.2892116048     -0.0136662728
H      -2.6179411703      0.1699364444     -0.1640184283
H      -1.2839992613     -2.3238192174      0.2013058918
H       1.2743795959     -2.1238354994     -0.2214653422
