12
step 0  E = -12.57624282 Ha
C       1.4914269396     -0.0679572974     -0.0536982606
C       0.4160342403      1.5042913233      0.1487415634
C      -0.7757299688      1.3709242198      0.0365573871
C      -1.5388469687      0.1270837686     -0.0403723511
C      -0.7761721075     -1.3733084418      0.0591445493
C       0.7205292533     -1.1994418307     -0.0789341410
H       2.5751557035     -0.0626482013     -0.1377980814
H       0.8616360753      2.4739176617      0.3557023532
H      -1.3552080639      2.2892116048     -0.0136662728
H      -2.6179411703      0.1699364444     -0.1640184283
H      -1.2839992613     -2.3238192174      0.2013058918
H       1.2743795959     -2.1238354994     -0.2214653422
12
step 1  E = -12.66898870 Ha  |g|max = 0.105629
C       1.4714662617     -0.0296014965     -0.0479429600
C       0.5218696825      1.4847706628      0.1534874669
C      -0.8528049254      1.3694873997      0.0280487779
C      -1.5315961549      0.0809177651     -0.0393812587
C      -0.7875133809     -1.3296017050      0.0558656419
C       0.7162395108     -1.2145108701     -0.0785832290
H       2.5715547991     -0.0615497486     -0.1376612884
H       0.8636224386      2.4708377719      0.3534796439
H      -1.3573749655      2.2879509164     -0.0121193007
H      -2.6150066395      0.1692695914     -0.1625212911
H      -1.2824575521     -2.3202108366      0.1993048876
H       1.2732651903     -2.1234049171     -0.2204782230
12
step 2  E = -12.71731020 Ha  |g|max = 0.051837
C       1.4178709989      0.0739566919     -0.0319391458
C       0.5998633413      1.3789352206      0.1406361772
C      -0.8427505550      1.3448451064      0.0253725040
C      -1.5209070966     -0.0081434273     -0.0370121306
C      -0.8075400906     -1.2407150185      0.0480679822
C       0.6945199852     -1.2251615866     -0.0747515081
H       2.5491970760     -0.0543417093     -0.1351021768
H       0.8840151460      2.4736965993      0.3503263637
H      -1.3788421606      2.3011746474     -0.0100207498
H      -2.6031026098      0.1572442376     -0.1566512308
H      -1.2729402573     -2.2910175365      0.1900213894
H       1.2718804860     -2.1261186918     -0.2174486066
12
step 3  E = -12.73111218 Ha  |g|max = 0.059429
C       1.4055299781      0.0671711611     -0.0295107123
C       0.6050659488      1.3843099652      0.1401063483
C      -0.8267463918      1.3054440064      0.0227925046
C      -1.5382187014      0.0447742938     -0.0390090921
C      -0.7868019989     -1.2824223876      0.0479254937
C       0.6850560110     -1.1751365815     -0.0692764266
H       2.5093951768     -0.0350547013     -0.1283590347
H       0.8996027983      2.4269569740      0.3379910228
H      -1.3757345865      2.2813742386     -0.0068527682
H      -2.5892484647      0.1349434818     -0.1492886079
H      -1.2625948426     -2.2447634610      0.1780683765
H       1.2659593450     -2.1232424505     -0.2130882363
12
step 4  E = -12.73973345 Ha  |g|max = 0.038142
C       1.3985124638      0.1036860347     -0.0247487550
C       0.6198650222      1.3575185445      0.1360977736
C      -0.8312120044      1.3175955448      0.0218837796
C      -1.5111412042      0.0082643397     -0.0349336754
C      -0.7892267287     -1.2295046665      0.0418487086
C       0.6777431499     -1.2003262738     -0.0703158693
H       2.4872380279     -0.0227845916     -0.1237590439
H       0.9151515787      2.4060624177      0.3308595947
H      -1.3668177651      2.2560206339     -0.0044596532
H      -2.5996837027      0.1262002965     -0.1466007664
H      -1.2626140715     -2.2375652888      0.1720342651
H       1.2534495115     -2.1008124551     -0.2064074899
12
step 5  E = -12.74561069 Ha  |g|max = 0.026735
C       1.3904892908      0.0888112238     -0.0247789937
C       0.6134190653      1.3628736029      0.1354299114
C      -0.8216087196      1.2970994506      0.0217422877
C      -1.5266148906      0.0342318932     -0.0360937609
C      -0.7805458827     -1.2503543823      0.0416915340
C       0.6766419560     -1.1738674133     -0.0682522980
H       2.4757386497     -0.0113162742     -0.1199754385
H       0.9276759958      2.3881404388      0.3249658197
H      -1.3673176784      2.2500977598     -0.0030329838
H      -2.5891638111      0.1148726250     -0.1422112907
H      -1.2584265947     -2.2168543449      0.1653945365
H       1.2509769027     -2.0993800441     -0.2033804549
12
step 6  E = -12.74909883 Ha  |g|max = 0.019776
C       1.3837829038      0.1032881937     -0.0222656018
C       0.6189572396      1.3472451240      0.1323967634
C      -0.8251678752      1.3012611331      0.0214980869
C      -1.5146729801      0.0172466229     -0.0339919887
C      -0.7829732766     -1.2238955218      0.0378157152
C       0.6733122359     -1.1805613410     -0.0684198205
H       2.4627136753      0.0015787827     -0.1153836023
H       0.9450702607      2.3725603145      0.3182998766
H      -1.3621403707      2.2330957806     -0.0008928231
H      -2.5925304974      0.1051539946     -0.1384050909
H      -1.2580167475     -2.2070221435      0.1584467770
H       1.2429297217     -2.0855964086     -0.1975994227
12
step 7  E = -12.74970756 Ha  |g|max = 0.045499
C       1.3777087009      0.0861350743     -0.0223781884
C       0.6082156165      1.3550122505      0.1311593032
C      -0.8141248561      1.2780025939      0.0219129769
C      -1.5318988686      0.0437054835     -0.0348029845
C      -0.7731511254     -1.2435785876      0.0362590689
C       0.6692007427     -1.1541281105     -0.0660428665
H       2.4510589754      0.0193043957     -0.1092558259
H       0.9669292163      2.3495540418      0.3089098536
H      -1.3647754153      2.2274775241      0.0015232413
H      -2.5827878091      0.0890937197     -0.1316320151
H      -1.2548695005     -2.1834528322      0.1479161520
H       1.2397586212     -2.0827710254     -0.1920698465
12
step 8  E = -12.75365948 Ha  |g|max = 0.013708
C       1.3750200293      0.1035593659     -0.0204125888
C       0.6163753970      1.3401418089      0.1289926772
C      -0.8224699059      1.2916342790      0.0219679133
C      -1.5178465660      0.0218106434     -0.0330230651
C      -0.7787895747     -1.2171197271      0.0334978311
C       0.6688889949     -1.1697202721     -0.0669549418
H       2.4490545446      0.0243787667     -0.1072541162
H       0.9758909138      2.3472248670      0.3061392540
H      -1.3615187679      2.2186231156      0.0026605112
H      -2.5909525930      0.0860439202     -0.1302421971
H      -1.2579993981     -2.1872775319      0.1450709979
H       1.2356112266     -2.0749447104     -0.1889434062
12
step 9  E = -12.75474472 Ha  |g|max = 0.018052
C       1.3736907289      0.0955154439     -0.0204835168
C       0.6115610720      1.3448501758      0.1281833333
C      -0.8189457692      1.2825227577      0.0225039208
C      -1.5255960557      0.0323889001     -0.0330841190
C      -0.7761587394     -1.2258980367      0.0321723158
C       0.6674855765     -1.1590332452     -0.0658879344
H       2.4451078464      0.0345496888     -0.1034460581
H       0.9891203440      2.3359013373      0.3002744097
H      -1.3640889015      2.2173861408      0.0042715174
H      -2.5879020275      0.0773487726     -0.1261340320
H      -1.2574655223     -2.1768494633      0.1384842013
H       1.2344557530     -2.0743279493     -0.1853551684
12
step 10  E = -12.75570834 Ha  |g|max = 0.011539
C       1.3710527624      0.1038370029     -0.0192458669
C       0.6147402692      1.3364967731      0.1263706698
C      -0.8227497996      1.2888052725      0.0228884119
C      -1.5201211880      0.0223249087     -0.0320756864
C      -0.7784998151     -1.2126686064      0.0299977133
C       0.6670636978     -1.1653174538     -0.0660354879
H       2.4439585334      0.0406138775     -0.1009784029
H       0.9988125114      2.3321137496      0.2966490356
H      -1.3634201300      2.2124586676      0.0055472509
H      -2.5917520123      0.0729000028     -0.1237935895
H      -1.2597635387     -2.1770095802      0.1344663764
H       1.2319430175     -2.0702000942     -0.1822915543
12
step 11  E = -12.75630323 Ha  |g|max = 0.018631
C       1.3711036116      0.0957258027     -0.0193457441
C       0.6100654247      1.3421776977      0.1254211978
C      -0.8200594845      1.2804538639      0.0236343338
C      -1.5274046624      0.0333187962     -0.0319332552
C      -0.7755635241     -1.2218998465      0.0283432907
C       0.6656954251     -1.1558365114     -0.0649045160
H       2.4410565968      0.0507166382     -0.0968641251
H       1.0120419417      2.3216751690      0.2902528502
H      -1.3670089167      2.2130219291      0.0073998985
H      -2.5899294247      0.0643895074     -0.1193763361
H      -1.2602018438     -2.1684725382      0.1273357697
H       1.2314691686     -2.0709159906     -0.1784644940
12
step 12  E = -12.75710454 Ha  |g|max = 0.010302
C       1.3683888557      0.1049900828     -0.0180845792
C       0.6139104692      1.3333146287      0.1235830137
C      -0.8242868815      1.2885246631      0.0241108465
C      -1.5218677450      0.0223490593     -0.0309639671
C      -0.7783816643     -1.2086704162      0.0263346240
C       0.6660754728     -1.1635032865     -0.0651362361
H       2.4411452819      0.0553781551     -0.0947287894
H       1.0199885124      2.3198354742      0.2870820779
H      -1.3664231908      2.2089753802      0.0085927351
H      -2.5938810945      0.0610861335     -0.1172996360
H      -1.2628051441     -2.1703288758      0.1237668179
H       1.2294014426     -2.0675964829     -0.1757580368
12
step 13  E = -12.75714260 Ha  |g|max = 0.022431
C       1.3698759190      0.0946645145     -0.0183977720
C       0.6084296470      1.3416928229      0.1226848180
C      -0.8213291291      1.2790810108      0.0250309093
C      -1.5297290941      0.0355784896     -0.0306968319
C      -0.7749224658     -1.2207256689      0.0246010740
C       0.6646691273     -1.1531532469     -0.0638446143
H       2.4387638142      0.0649142602     -0.0904580376
H       1.0320361818      2.3100080447      0.2803425121
H      -1.3710060038      2.2117107748      0.0106074884
H      -2.5920290895      0.0531134092     -0.1127031964
H      -1.2633899259     -2.1623922978      0.1162871479
H       1.2298953369     -2.0701376002     -0.1719546269
12
step 14  E = -12.75822670 Ha  |g|max = 0.007652
C       1.3669548633      0.1047056425     -0.0171503382
C       0.6127039586      1.3322634351      0.1209457375
C      -0.8255773358      1.2883208757      0.0254817728
C      -1.5241746014      0.0238772419     -0.0298415162
C      -0.7780009985     -1.2074962386      0.0229312433
C       0.6656135827     -1.1618688964     -0.0641813418
H       2.4395742029      0.0678370754     -0.0888883844
H       1.0376762639      2.3100449103      0.2780083822
H      -1.3700870953      2.2080361551      0.0115791769
H      -2.5956239926      0.0511991089     -0.1111486433
H      -1.2658725262     -2.1654153261      0.1135947661
H       1.2280779980     -2.0671494723     -0.1698319840
12
step 15  E = -12.75858800 Ha  |g|max = 0.008760
C       1.3678813668      0.0993428207     -0.0172203134
C       0.6100106650      1.3368019992      0.1202137275
C      -0.8245231510      1.2837809577      0.0261042530
C      -1.5276464028      0.0304459384     -0.0294716331
C      -0.7763896818     -1.2133928838      0.0216898421
C       0.6649481867     -1.1568910652     -0.0634408531
H       2.4384190586      0.0731273307     -0.0862483565
H       1.0442909790      2.3048411584      0.2737923918
H      -1.3727451509      2.2097831705      0.0129210927
H      -2.5950058185      0.0468928233     -0.1083258693
H      -1.2664462894     -2.1615434853      0.1089277097
H       1.2284705597     -2.0688342544     -0.1674431202
12
step 16  E = -12.75892727 Ha  |g|max = 0.006452
C       1.3660149891      0.1044367108     -0.0163590239
C       0.6118718687      1.3317467697      0.1186708595
C      -0.8268170256      1.2887621907      0.0266928370
C      -1.5255116163      0.0248054564     -0.0287671927
C      -0.7779078564     -1.2067781687      0.0201140344
C       0.6655424075     -1.1612262809     -0.0633893319
H       2.4386921404      0.0767624194     -0.0842057479
H       1.0501735379      2.3033454229      0.2706197622
H      -1.3730678409      2.2079784526      0.0141165336
H      -2.5968356073      0.0442411954     -0.1061770917
H      -1.2682825441     -2.1622303687      0.1053046920
H       1.2273918697     -2.0674892907     -0.1651214594
12
step 17  E = -12.75919092 Ha  |g|max = 0.008940
C       1.3670130540      0.0992776117     -0.0163282866
C       0.6093005623      1.3362046415      0.1177035984
C      -0.8260170275      1.2845511484      0.0274179642
C      -1.5285081088      0.0310500548     -0.0282215749
C      -0.7762076347     -1.2121244308      0.0186076217
C       0.6648411315     -1.1567201377     -0.0625926872
H       2.4375481183      0.0820971528     -0.0812766149
H       1.0567882530      2.2982836317      0.2658976842
H      -1.3758480312      2.2099029908      0.0156924319
H      -2.5964146224      0.0399681337     -0.1030441347
H      -1.2690998551     -2.1587539878      0.1000894744
H       1.2278684851     -2.0693823014     -0.1624466050
12
step 18  E = -12.75948016 Ha  |g|max = 0.006267
C       1.3650285306      0.1047365613     -0.0154501912
C       0.6113562873      1.3308597378      0.1161686439
C      -0.8282980717      1.2899815028      0.0279957925
C      -1.5263220901      0.0250871854     -0.0275422938
C      -0.7778756641     -1.2055097157      0.0171474409
C       0.6656873037     -1.1614816557     -0.0625717123
H       2.4379841591      0.0850078326     -0.0794138115
H       1.0616788749      2.2974986490      0.2629685798
H      -1.3759572794      2.2081121902      0.0168438100
H      -2.5980442231      0.0378978878     -0.1010556176
H      -1.2708094764     -2.1597629065      0.0967194232
H       1.2268359748     -2.0680727626     -0.1603111923
12
step 19  E = -12.75965400 Ha  |g|max = 0.009315
C       1.3663036481      0.0990753818     -0.0154429094
C       0.6086682501      1.3359148979      0.1152244130
C      -0.8273668651      1.2853931917      0.0287080009
C      -1.5291389086      0.0317019006     -0.0269434745
C      -0.7759714837     -1.2112602580      0.0156593637
C       0.6648776614     -1.1567698813     -0.0617434143
H       2.4368199820      0.0897049883     -0.0765735709
H       1.0672306551      2.2928808206      0.2583226508
H      -1.3786980811      2.2103637689      0.0184413113
H      -2.5975006118      0.0341576355     -0.0980079609
H      -1.2714959832     -2.1565139864      0.0916157823
H       1.2275360641     -2.0702939542     -0.1577613202
12
step 20  E = -12.75992371 Ha  |g|max = 0.006148
C       1.3642226664      0.1048362874     -0.0145616608
C       0.6108579391      1.3303154824      0.1137301094
C      -0.8295828327      1.2911230973      0.0292565441
C      -1.5269449383      0.0254750625     -0.0263090638
C      -0.7777665678     -1.2046455429      0.0143327110
C       0.6659137259     -1.1618512142     -0.0617546139
H       2.4373675432      0.0919637135     -0.0749068372
H       1.0712434345      2.2926947780      0.2556722489
H      -1.3785794502      2.2085246703      0.0195254077
H      -2.5989285055      0.0326007681     -0.0962031854
H      -1.2730528333     -2.1577468343      0.0885433652
H       1.2265141466     -2.0689357637     -0.1558261532
12
step 21  E = -12.76003694 Ha  |g|max = 0.009202
C       1.3656250680      0.0990092502     -0.0145467172
C       0.6082022352      1.3356056536      0.1127984812
C      -0.8286187392      1.2864126443      0.0299394258
C      -1.5294716744      0.0320897776     -0.0256682244
C      -0.7757855064     -1.2104134919      0.0128679821
C       0.6650347390     -1.1571339808     -0.0609202357
H       2.4362100119      0.0960560131     -0.0721793672
H       1.0758538528      2.2885326484      0.2511491627
H      -1.3811720661      2.2108780202      0.0211271190
H      -2.5983310292      0.0293611178     -0.0932670784
H      -1.2736218668     -2.1547523105      0.0835993309
H       1.2273393043     -2.0712908384     -0.1534010066
12
step 22  E = -12.76027564 Ha  |g|max = 0.006422
C       1.3634674400      0.1050175879     -0.0136503980
C       0.6104643513      1.3297875395      0.1113035344
C      -0.8307636918      1.2923629512      0.0304820819
C      -1.5273205967      0.0256725938     -0.0250582780
C      -0.7776735295     -1.2037987768      0.0116087355
C       0.6662115978     -1.1624611621     -0.0609410574
H       2.4368184250      0.0979083458     -0.0705958148
H       1.0793344741      2.2887314907      0.2486015967
H      -1.3809039197      2.2089831649      0.0222001259
H      -2.5995968472      0.0281207863     -0.0915301794
H      -1.2750787082     -2.1560992033      0.0806328880
H       1.2263053345     -2.0698708150     -0.1515543625
12
step 23  E = -12.76035612 Ha  |g|max = 0.008792
C       1.3649855735      0.0990420568     -0.0136586782
C       0.6078620167      1.3352776173      0.1104776081
C      -0.8297244913      1.2874769791      0.0310862671
C      -1.5296103849      0.0322873089     -0.0244353892
C      -0.7756349009     -1.2096124487      0.0102687583
C       0.6652588276     -1.1576726511     -0.0601328006
H       2.4356909650      0.1012786442     -0.0681286637
H       1.0828770847      2.2850822477      0.2444519373
H      -1.3832668749      2.2113645913      0.0237035931
H      -2.5989377394      0.0254536275     -0.0888666496
H      -1.2754642421     -2.1533558495      0.0761278847
H       1.2272284966     -2.0722676214     -0.1493949948
12
step 24  E = -12.76055071 Ha  |g|max = 0.006963
C       1.3627743033      0.1052559404     -0.0127412033
C       0.6101668867      1.3292793886      0.1089598701
C      -0.8318072593      1.2935977041      0.0316362513
C      -1.5275113955      0.0257233772     -0.0238360718
C      -0.7776014385     -1.2029977336      0.0090377251
C       0.6665465397     -1.1632004022     -0.0601496310
H       2.4363330968      0.1028577663     -0.0665633634
H       1.0860104385      2.2855464258      0.2419046489
H      -1.3828933021      2.2094150848      0.0247988521
H      -2.6000769326      0.0244233746     -0.0871321065
H      -1.2768509414     -2.1547616773      0.0731575085
H       1.2261743356     -2.0707847470     -0.1475736075
12
step 25  E = -12.76062629 Ha  |g|max = 0.008267
C       1.3643928110      0.0991556744     -0.0127890132
C       0.6076149914      1.3349278114      0.1082799965
C      -0.8306793158      1.2885267889      0.0321447296
C      -1.5296297864      0.0323380924     -0.0232632371
C      -0.7755154549     -1.2088571354      0.0078609736
C       0.6655134543     -1.1583051636     -0.0593834432
H       2.4352490231      0.1055635654     -0.0644047043
H       1.0885984953      2.2823549366      0.2382237876
H      -1.3850243024      2.2117873523      0.0261554778
H      -2.5993740795      0.0222713228     -0.0847972649
H      -1.2770510989     -2.1522373625      0.0691949087
H       1.2271695946     -2.0731713815     -0.1457233383
12
step 26  E = -12.76076959 Ha  |g|max = 0.007536
C       1.3621630466      0.1054782434     -0.0118536440
C       0.6099316034      1.3288446292      0.1067364586
C      -0.8327018588      1.2947228193      0.0327067478
C      -1.5275917857      0.0257233772     -0.0226673213
C      -0.7775380548     -1.2023054054      0.0066391828
C       0.6668855140     -1.1639470970     -0.0593855890
H       2.4359033493      0.1069423812     -0.0628238029
H       1.0914724266      2.2829987137      0.2356219474
H      -1.3845787978      2.2098061593      0.0272895956
H      -2.6004079812      0.0213911474     -0.0830324185
H      -1.2783754296     -2.1536556546      0.0661650984
H       1.2261023003     -2.0716448129     -0.1438973822
12
step 27  E = -12.76085559 Ha  |g|max = 0.007765
C       1.3638617798      0.0992780148     -0.0119368212
C       0.6074123830      1.3346095936      0.1061846758
C      -0.8314929774      1.2894948563      0.0331327023
C      -1.5295966103      0.0323380924     -0.0221433436
C      -0.7754041752     -1.2081936008      0.0056014150
C       0.6657691005     -1.1589419185     -0.0586580324
H       2.4348602889      0.1091415810     -0.0609264994
H       1.0933452133      2.2801519076      0.2323462676
H      -1.3865269421      2.2121606461      0.0285137222
H      -2.5996827703      0.0196268990     -0.0809784021
H      -1.2784313662     -2.1513011614      0.0626700887
H       1.2271504088     -2.0740104097     -0.1423069000
12
step 28  E = -12.76095060 Ha  |g|max = 0.008031
C       1.3616319763      0.1056514186     -0.0109881946
C       0.6097357438      1.3285005243      0.1046222011
C      -0.8334671607      1.2957062702      0.0337050114
C      -1.5276082264      0.0257233772     -0.0215497635
C      -0.7774767618     -1.2017324956      0.0043854604
C       0.6672129083     -1.1646450362     -0.0586423257
H       2.4355199656      0.1103477338     -0.0593238995
H       1.0959904207      2.2809333108      0.2296804300
H      -1.3860212114      2.2101585767      0.0296874662
H      -2.6006335427      0.0188727702     -0.0791799619
H      -1.2796938023     -2.1527146599      0.0595747104
H       1.2260740239     -2.0724472901     -0.1404722614
12
step 29  E = -12.76105155 Ha  |g|max = 0.007328
C       1.3633962232      0.0993710085     -0.0110975967
C       0.6072296081      1.3343501069      0.1041686154
C      -0.8321844746      1.2903541717      0.0340665021
C      -1.5295433256      0.0323380924     -0.0210644165
C      -0.7752900109     -1.2076366851      0.0034521101
C       0.6660116291     -1.1595384040     -0.0579454284
H       2.4345108395      0.1121764291     -0.0576278040
H       1.0973478331      2.2783387659      0.2267198957
H      -1.3878345651      2.2124966635      0.0308074824
H      -2.5998975917      0.0173895184     -0.0773434147
H      -1.2796451862     -2.1504895342      0.0564437048
H       1.2271633545     -2.0747956333     -0.1390807772
12
step 30  E = -12.76110430 Ha  |g|max = 0.008459
C       1.3611669329      0.1057857455     -0.0101385189
C       0.6095741405      1.3282272481      0.1025950220
C      -0.8341304092      1.2965656403      0.0346457038
C      -1.5275807059      0.0257233772     -0.0204748332
C      -0.7774214755     -1.2012503255      0.0022445649
C       0.6675260828     -1.1652904854     -0.0579135465
H       2.4351793516      0.1132196887     -0.0560090201
H       1.0997784584      2.2792420277      0.2240005811
H      -1.3872674884      2.2104703005      0.0320147897
H      -2.6007889651      0.0167523005     -0.0755200913
H      -1.2808472106     -2.1519012320      0.0532970800
H       1.2260756221     -2.0731897861     -0.1372428584
12
step 31  E = -12.76122180 Ha  |g|max = 0.006946
C       1.3629891159      0.0994401856     -0.0102680192
C       0.6070644964      1.3341391151      0.1022188797
C      -0.8327753538      1.2911154346      0.0349554034
C      -1.5294793689      0.0323380924     -0.0200208995
C      -0.7751766085     -1.2071653530      0.0013924674
C       0.6662384775     -1.1600919398     -0.0572420943
H       2.4341977626      0.1147675473     -0.0544736518
H       1.1007520470      2.2768403034      0.2212947019
H      -1.3889789958      2.2127946462      0.0330499255
H      -2.6000460179      0.0154801262     -0.0738583118
H      -1.2807203138     -2.1497783366      0.0504600931
H       1.2271990935     -2.0755253219     -0.1360096213
12
step 32  E = -12.76123737 Ha  |g|max = 0.008830
C       1.3607581640      0.1058882407     -0.0093014614
C       0.6094429865      1.3280115922      0.1006416458
C      -0.8347102342      1.2973149196      0.0355384668
C      -1.5275227011      0.0257233772     -0.0194373419
C      -0.7773746186     -1.2008404424      0.0001967408
C       0.6678236106     -1.1658822244     -0.0571960055
H       2.4348793588      0.1156563399     -0.0528451896
H       1.1029800809      2.2778524332      0.2185343969
H      -1.3883500723      2.2107421206      0.0342840012
H      -2.6008974726      0.0149520486     -0.0720195809
H      -1.2818631128     -2.1511913538      0.0472780495
H       1.2260983452     -2.0738725522     -0.1341748483
12
step 33  E = -12.76137153 Ha  |g|max = 0.006614
C       1.3626348562      0.0994894865     -0.0094467464
C       0.6069155821      1.3339694489      0.1003278753
C      -0.8332814257      1.2917873457      0.0358056480
C      -1.5294111238      0.0323380924     -0.0190094597
C      -0.7750664412     -1.2067645848     -0.0005904530
C       0.6664482133     -1.1606014182     -0.0565464358
H       2.4339191557      0.1169858581     -0.0514418094
H       1.1036613493      2.2756028558      0.2160402710
H      -1.3899834813      2.2130556274      0.0352479923
H      -2.6001472533      0.0138425560     -0.0705022144
H      -1.2816763540     -2.1491513788      0.0446852062
H       1.2272512571     -2.0761993899     -0.1330710008
12
step 34  E = -12.76151651 Ha  |g|max = 0.003253
C       1.3615166259      0.1027268238     -0.0089613118
C       0.6081273632      1.3309066774      0.0995410649
C      -0.8342507411      1.2948765382      0.0360977238
C      -1.5284275402      0.0290307348     -0.0187218580
C      -0.7762019961     -1.2036273237     -0.0011803688
C       0.6672764307     -1.1635109017     -0.0565174153
H       2.4342686403      0.1173570615     -0.0506263773
H       1.1046796728      2.2761576519      0.2146466868
H      -1.3896381334      2.2120158170      0.0358746867
H      -2.6005610578      0.0136295043     -0.0695801849
H      -1.2822186531     -2.1498598857      0.0430849960
H       1.2266937236     -2.0753481988     -0.1321587688
12
step 35  E = -12.76155135 Ha  |g|max = 0.009907
C       1.3621982563      0.0978981344     -0.0074291005
C       0.6060251036      1.3351676716      0.0956081639
C      -0.8341285546      1.2918158692      0.0379387760
C      -1.5295569774      0.0340700193     -0.0164168688
C      -0.7743085202     -1.2074232845     -0.0056260921
C       0.6666786688     -1.1603666894     -0.0546291996
H       2.4330132037      0.1221115433     -0.0436719994
H       1.1100425468      2.2723405909      0.2024532830
H      -1.3925362460      2.2140868258      0.0409598385
H      -2.6000922275      0.0100098770     -0.0619026665
H      -1.2837053179     -2.1471056425      0.0298555658
H       1.2276344000     -2.0782504166     -0.1256408266
12
step 36  E = -12.76175227 Ha  |g|max = 0.005695
C       1.3602432745      0.1043943680     -0.0066623081
C       0.6083244229      1.3290950097      0.0944924049
C      -0.8357086445      1.2977687388      0.0383363817
C      -1.5278129019      0.0274553042     -0.0161099820
C      -0.7764797797     -1.2013023046     -0.0063117213
C       0.6681520335     -1.1660923849     -0.0547043001
H       2.4337467745      0.1221537065     -0.0427478654
H       1.1112200927      2.2739261847      0.2008752611
H      -1.3916145161      2.2120244047      0.0417135351
H      -2.6008124282      0.0100906959     -0.0608399023
H      -1.2845487275     -2.1487509524      0.0279942455
H       1.2265547354     -2.0764082721     -0.1245368752
12
step 37  E = -12.76184885 Ha  |g|max = 0.002773
C       1.3611061521      0.1011319063     -0.0066384812
C       0.6071701463      1.3321157005      0.0941843021
C      -0.8350876598      1.2949827789      0.0385077307
C      -1.5286367963      0.0307626618     -0.0157984325
C      -0.7753846445     -1.2042648826     -0.0068608244
C       0.6675221309     -1.1633947352     -0.0543272619
H       2.4333213281      0.1227224032     -0.0418554709
H       1.1114125686      2.2728825511      0.1992581579
H      -1.3923883021      2.2131475167      0.0423815051
H      -2.6004810466      0.0096019794     -0.0598696779
H      -1.2844365547     -2.1477426242      0.0263174718
H       1.2271470137     -2.0775907574     -0.1238001450
12
step 38  E = -12.76188303 Ha  |g|max = 0.003818
C       1.3602878512      0.1035413429     -0.0059468171
C       0.6079807551      1.3298489085      0.0929057366
C      -0.8358122839      1.2973784688      0.0390287032
C      -1.5279422124      0.0283195375     -0.0152239083
C      -0.7761674540     -1.2019101539     -0.0080023214
C       0.6681608554     -1.1657099016     -0.0540102649
H       2.4335049198      0.1232761438     -0.0401531865
H       1.1125592160      2.2732219318      0.1962498026
H      -1.3923106625      2.2124164009      0.0437129981
H      -2.6007430717      0.0092155544     -0.0579698874
H      -1.2850224800     -2.1481400714      0.0230101143
H       1.2267689026     -2.0771036633     -0.1221020952
12
step 39  E = -12.76191964 Ha  |g|max = 0.003904
C       1.3611464941      0.1002651438     -0.0058071760
C       0.6067832538      1.3328629223      0.0923600171
C      -0.8351736489      1.2946082335      0.0392976784
C      -1.5287819962      0.0316268951     -0.0147864524
C      -0.7750163875     -1.2048383840     -0.0087938841
C       0.6674980577     -1.1630186499     -0.0535369667
H       2.4330626386      0.1239330214     -0.0389004192
H       1.1128827498      2.2721648712      0.1939857877
H      -1.3931465058      2.2135580552      0.0446694081
H      -2.6003988503      0.0086534621     -0.0566023105
H      -1.2849781100     -2.1471088553      0.0206413891
H       1.2273866405     -2.0783522169     -0.1210281975
12
step 40  E = -12.76195717 Ha  |g|max = 0.003945
C       1.3601449118      0.1035311486     -0.0052270242
C       0.6079265653      1.3298280967      0.0913892883
C      -0.8360316681      1.2976670838      0.0396809473
C      -1.5278837492      0.0283195375     -0.0144178103
C      -0.7761241150     -1.2017550959     -0.0095565864
C       0.6683005692     -1.1659955872     -0.0533988275
H       2.4333895441      0.1241319281     -0.0377733219
H       1.1137169879      2.2728842968      0.1920003004
H      -1.3927704325      2.2125139401      0.0455676626
H      -2.6007521940      0.0085450053     -0.0553381522
H      -1.2854961374     -2.1478330376      0.0184302176
H       1.2268440538     -2.0774828177     -0.1198578198
12
step 41  E = -12.76199357 Ha  |g|max = 0.003792
C       1.3610107130      0.1002463337     -0.0051072481
C       0.6067328740      1.3328496135      0.0908969742
C      -0.8353718165      1.2948720881      0.0399225443
C      -1.5287259805      0.0316268951     -0.0140073737
C      -0.7749680161     -1.2046968460     -0.0102926080
C       0.6676202781     -1.1632735604     -0.0529472226
H       2.4329661689      0.1247030893     -0.0366134057
H       1.1139330460      2.2718778435      0.1898955587
H      -1.3935668611      2.2136414902      0.0464609284
H      -2.6004115462      0.0080435417     -0.0540758950
H      -1.2854163656     -2.1468282503      0.0162410469
H       1.2274618420     -2.0787077398     -0.1188744254
12
step 42  E = -12.76202426 Ha  |g|max = 0.004048
C       1.3600240278      0.1035152035     -0.0045332850
C       0.6078811999      1.3298229635      0.0899424773
C      -0.8362196909      1.2979116696      0.0403022608
C      -1.5278304321      0.0283195375     -0.0136496577
C      -0.7760861405     -1.2016241047     -0.0110371223
C       0.6684237030     -1.1662465703     -0.0528084720
H       2.4332970923      0.1248462638     -0.0355028404
H       1.1147010141      2.2726298471      0.1879333115
H      -1.3931675926      2.2125893350      0.0473504399
H      -2.6007635707      0.0079715110     -0.0528330978
H      -1.2859115933     -2.1475627294      0.0140625996
H       1.2269163189     -2.0778184279     -0.1177277399
12
step 43  E = -12.76206051 Ha  |g|max = 0.003702
C       1.3608978239      0.1002232795     -0.0044299532
C       0.6066900016      1.3328492612      0.0894945860
C      -0.8355409226      1.2950946781      0.0405206351
C      -1.5286787130      0.0316268951     -0.0132614512
C      -0.7749253908     -1.2045762758     -0.0117269822
C       0.6677275037     -1.1634964620     -0.0523756408
H       2.4328867088      0.1253493773     -0.0344211643
H       1.1148323195      2.2716634161      0.1859636398
H      -1.3939336739      2.2137075694      0.0481900888
H      -2.6004232247      0.0075181354     -0.0516599325
H      -1.2858031194     -2.1465794949      0.0120255131
H       1.2275350229     -2.0790258808     -0.1168204643
12
step 44  E = -12.76208527 Ha  |g|max = 0.004130
C       1.3599230143      0.1034943851     -0.0038639254
C       0.6078444699      1.3298301345      0.0885595768
C      -0.8363814591      1.2981168029      0.0408954009
C      -1.5277836066      0.0283195375     -0.0129159882
C      -0.7760542016     -1.2015127441     -0.0124503027
C       0.6685325074     -1.1664650902     -0.0522382341
H       2.4332222690      0.1254420533     -0.0333323265
H       1.1155398471      2.2724435370      0.1840347864
H      -1.3935124272      2.2126476160      0.0490659272
H      -2.6007756571      0.0074791863     -0.0504444335
H      -1.2862764961     -2.1473235915      0.0098902465
H       1.2269860758     -2.0781173279     -0.1157018532
12
step 45  E = -12.76212130 Ha  |g|max = 0.003630
C       1.3608041562      0.1001968575     -0.0037744287
C       0.6066533980      1.3328595892      0.0881492755
C      -0.8356852793      1.2952822789      0.0410938245
C      -1.5286390508      0.0316268951     -0.0125463546
C      -0.7748877285     -1.2044734332     -0.0131011410
C       0.6678213053     -1.1636915263     -0.0518220055
H       2.4328220110      0.1258904297     -0.0323177253
H       1.1156034257      2.2715090602      0.1821815470
H      -1.3942541086      2.2137585923      0.0498592817
H      -2.6004348542      0.0070644765     -0.0493479127
H      -1.2861444585     -2.1463581389      0.0079840758
H       1.2276055197     -2.0793105821     -0.1148595625
12
step 46  E = -12.76214092 Ha  |g|max = 0.004195
C       1.3598386878      0.1034698046     -0.0032178926
C       0.6078150535      1.3298471256      0.0872364614
C      -0.8365209109      1.2982883362      0.0414624724
C      -1.5277428350      0.0283195375     -0.0122142886
C      -0.7760275531     -1.2014177774     -0.0138007500
C       0.6686286041     -1.1666551983     -0.0516876119
H       2.4331622996      0.1259378069     -0.0312549635
H       1.1162563067      2.2723131287      0.1802947203
H      -1.3938124308      2.2126915093      0.0507172149
H      -2.6007886533      0.0070553273     -0.0481645867
H      -1.2865971672     -2.1471111365      0.0059007113
H       1.2270529345     -2.0783839649     -0.1137726129
12
step 47  E = -12.76217659 Ha  |g|max = 0.003573
C       1.3607268468      0.1001678719     -0.0031402865
C       0.6066221963      1.3328786153      0.0868585373
C      -0.8358084850      1.2954397950      0.0416434782
C      -1.5286062069      0.0316268951     -0.0118604592
C      -0.7748545097     -1.2043855757     -0.0144180105
C       0.6679031360     -1.1638620026     -0.0512862937
H       2.4327698512      0.1263416869     -0.0302988228
H       1.1162651649      2.2714043895      0.1785435178
H      -1.3945342697      2.2137967890      0.0514699191
H      -2.6004467816      0.0066720793     -0.0471350604
H      -1.2864455731     -2.1461605156      0.0041090643
H       1.2276729667     -2.0795655290     -0.1129867094
12
step 48  E = -12.76219178 Ha  |g|max = 0.004245
C       1.3597684034      0.1034423954     -0.0025945728
C       0.6077917760      1.3298719094      0.0859700864
C      -0.8366412745      1.2984312167      0.0420050681
C      -1.5277076244      0.0283195375     -0.0115427186
C      -0.7760054804     -1.2013366012     -0.0150918918
C       0.6687133993     -1.1668204255     -0.0511563247
H       2.4331148463      0.1263488311     -0.0292656804
H       1.1168690311      2.2722285573      0.1767058600
H      -1.3940737814      2.2127232879      0.0523064061
H      -2.6008026219      0.0066895652     -0.0459877861
H      -1.2868789435     -2.1469216479      0.0020846515
H       1.2271166059     -2.0786221268     -0.1119342234
12
step 49  E = -12.76222693 Ha  |g|max = 0.003530
C       1.3606634465      0.1001370103     -0.0025273724
C       0.6065956326      1.3329046516      0.0856204718
C      -0.8359135646      1.2955714208      0.0421706555
C      -1.5285794391      0.0316268951     -0.0112025489
C      -0.7748252390     -1.2043104146     -0.0156798208
C       0.6679743092     -1.1640107597     -0.0507685627
H       2.4327282913      0.1267162589     -0.0283612058
H       1.1168332988      2.2713406676      0.1750453197
H      -1.3947793588      2.2138241073      0.0530229118
H      -2.6004591625      0.0063321573     -0.0450175980
H      -1.2867109872     -2.1459835120      0.0003945404
H       1.2277371089     -2.0797939833     -0.1111979162
12
step 50  E = -12.76223831 Ha  |g|max = 0.004284
C       1.3597099550      0.1034129331     -0.0019935672
C       0.6077736211      1.3299028001      0.0847580224
C      -0.8367452515      1.2985496511      0.0425244608
C      -1.5276774750      0.0283195375     -0.0108998349
C      -0.7759873333     -1.2012670668     -0.0163264605
C       0.6687881386     -1.1669638644     -0.0506441760
H       2.4330778875      0.1266880103     -0.0273604420
H       1.1173935245      2.2721814357      0.1732625023
H      -1.3943016956      2.2127448973      0.0538351003
H      -2.6008175017      0.0063732752     -0.0439093000
H      -1.2871264377     -2.1467519891     -0.0015654909
H       1.2271769039     -2.0788351207     -0.1101819401
12
step 51  E = -12.76227283 Ha  |g|max = 0.003496
C       1.3606116463      0.1001055755     -0.0019356261
C       0.6065732934      1.3329355895      0.0844335537
C      -0.8360032555      1.2956814183      0.0426762023
C      -1.5285578497      0.0316261749     -0.0105717029
C      -0.7747997096     -1.2042453701     -0.0168883118
C       0.6680361816     -1.1641409798     -0.0502689451
H       2.4326957226      0.1270253318     -0.0265023622
H       1.1173212267      2.2713106806      0.1716838062
H      -1.3949937183      2.2138420091      0.0545188389
H      -2.6004721031      0.0060373226     -0.0429924573
H      -1.2869447490     -2.1458246471     -0.0031642085
H       1.2277976506     -2.0799986059     -0.1094899129
12
step 52  E = -12.76228087 Ha  |g|max = 0.004315
C       1.3596612659      0.1033827715     -0.0014144131
C       0.6077599764      1.3299377345      0.0835979357
C      -0.8368353233      1.2986478980      0.0430218248
C      -1.5276516814      0.0283188173     -0.0102843282
C      -0.7759727876     -1.2012067089     -0.0175069909
C       0.6688541255     -1.1670888951     -0.0501509250
H       2.4330497460      0.1269663031     -0.0255355131
H       1.1178429679      2.2721649068      0.1699592239
H      -1.3945005340      2.2127577679      0.0553049285
H      -2.6008332339      0.0060991954     -0.0419246482
H      -1.2873437896     -2.1465996378     -0.0050568727
H       1.2272336041     -2.0790256534     -0.1085113473
12
step 53  E = -12.76231473 Ha  |g|max = 0.003467
C       1.3605692499      0.1000754139     -0.0013649279
C       0.6065550703      1.3329689436      0.0832963164
C      -0.8360800806      1.2957741501      0.0431608908
C      -1.5285404102      0.0316233761     -0.0099671093
C      -0.7747779733     -1.2041875685     -0.0180450761
C       0.6680901527     -1.1642561497     -0.0497875335
H       2.4326708172      0.1272785405     -0.0247200103
H       1.1177404968      2.2713084862      0.1684560345
H      -1.3951810080      2.2138515345      0.0559583152
H      -2.6004856943      0.0057812884     -0.0410567415
H      -1.2871505496     -2.1456819523     -0.0065716139
H       1.2278542651     -2.0801815633     -0.1078596699
12
step 54  E = -12.76231977 Ha  |g|max = 0.004342
C       1.3596203375      0.1033537785     -0.0008564810
C       0.6077506122      1.3299743106      0.0824873715
C      -0.8369138314      1.2987302853      0.0434983363
C      -1.5276293466      0.0283160185     -0.0096948924
C      -0.7759618410     -1.2011527545     -0.0186360582
C       0.6689127437     -1.1671991642     -0.0496762104
H       2.4330290590      0.1271930630     -0.0237870963
H       1.1182286567      2.2721734082      0.1667902633
H      -1.3946739457      2.2127628726      0.0567178027
H      -2.6008497991      0.0058611702     -0.0400292326
H      -1.2875347505     -2.1464625777     -0.0083969039
H       1.2272864413     -2.0791959111     -0.1069180246
12
step 55  E = -12.76235300 Ha  |g|max = 0.003442
C       1.3605348296      0.1000464209     -0.0008149613
C       0.6065402335      1.3330041251      0.0822069242
C      -0.8361458287      1.2958519679      0.0436256134
C      -1.5285266454      0.0316190005     -0.0093877085
C      -0.7747594307     -1.2041360469     -0.0191521777
C       0.6681370878     -1.1643579461     -0.0493240378
H       2.4326522192      0.1274844235     -0.0230111611
H       1.1181010532      2.2713286214      0.1653575759
H      -1.3953448147      2.2138541503      0.0573427156
H      -2.6004997817      0.0055584459     -0.0392067441
H      -1.2873316431     -2.1455532192     -0.0098335512
H       1.2279070571     -2.0803454437     -0.1063036129
12
step 56  E = -12.76235533 Ha  |g|max = 0.004365
C       1.3595859445      0.1033258780     -0.0003193817
C       0.6077447615      1.3300120192      0.0814243986
C      -0.8369823839      1.2987990349      0.0439549136
C      -1.5276101017      0.0283116430     -0.0091304396
C      -0.7759539130     -1.2011043807     -0.0197158053
C       0.6689648312     -1.1672963789     -0.0492196640
H       2.4330144953      0.1273763090     -0.0221120743
H       1.1185599231      2.2722018688      0.1637508829
H      -1.3948253379      2.2127615990      0.0580752777
H      -2.6008669758      0.0056539369     -0.0382191763
H      -1.2877024397     -2.1463386858     -0.0115917626
H       1.2273355325     -2.0793483434     -0.1053982945
12
step 57  E = -12.76238796 Ha  |g|max = 0.003421
C       1.3605071519      0.1000185204     -0.0002853780
C       0.6065281700      1.3330406147      0.0811636268
C      -0.8362020408      1.2959169371      0.0440711883
C      -1.5285161021      0.0316134478     -0.0088325175
C      -0.7747435665     -1.2040899709     -0.0202115597
C       0.6681777771     -1.1644478934     -0.0488781307
H       2.4326387749      0.1276502984     -0.0213730241
H       1.1184113699      2.2713665008      0.1623841932
H      -1.3954882359      2.2138511012      0.0586734258
H      -2.6005142001      0.0053640174     -0.0374389474
H      -1.2874909200     -2.1454365503     -0.0129556004
H       1.2279561576     -2.0804925233     -0.1048184018
12
step 58  E = -12.76242583 Ha  |g|max = 0.001734
C       1.3600320976      0.1016587669     -0.0000440356
C       0.6071349734      1.3315455167      0.0807853982
C      -0.8366221996      1.2973865086      0.0442317960
C      -1.5280548455      0.0299597690     -0.0087112350
C      -0.7753460341     -1.2025754191     -0.0204799100
C       0.6685944581     -1.1659149837     -0.0488295070
H       2.4328218486      0.1275865943     -0.0209402725
H       1.1186280359      2.2718062761      0.1616103622
H      -1.3952229425      2.2133031131      0.0590261710
H      -2.6006993744      0.0054185199     -0.0369648703
H      -1.2876702714     -2.1458313492     -0.0138014665
H       1.2276685900     -2.0799888128     -0.1043835562
12
step 59  E = -12.76245902 Ha  |g|max = 0.003746
C       1.3604545349      0.0997953523      0.0009752353
C       0.6064744623      1.3332679974      0.0786824036
C      -0.8363156122      1.2959110927      0.0451346867
C      -1.5284976718      0.0317547620     -0.0075040458
C      -0.7746805070     -1.2041208343     -0.0227393406
C       0.6682587838     -1.1645068367     -0.0477996754
H       2.4325927059      0.1279894483     -0.0174513076
H       1.1190488899      2.2714292213      0.1552557320
H      -1.3958076581      2.2138501603      0.0618643790
H      -2.6005285129      0.0049298595     -0.0332210594
H      -1.2878108809     -2.1451049563     -0.0204161816
H       1.2280758021     -2.0808407661     -0.1012819516
12
step 60  E = -12.76246662 Ha  |g|max = 0.004049
C       1.3595681988      0.1030794970      0.0013997073
C       0.6076361571      1.3302810831      0.0780385426
C      -0.8370827215      1.2988220957      0.0454154247
C      -1.5276299903      0.0284474044     -0.0073249123
C      -0.7758368015     -1.2011014963     -0.0231607279
C       0.6690238995     -1.1674186420     -0.0477407812
H       2.4329444493      0.1278170524     -0.0167483198
H       1.1194310157      2.2723338604      0.1540016892
H      -1.3952697814      2.2127765340      0.0624374702
H      -2.6008811198      0.0050752447     -0.0324545062
H      -1.2881511306     -2.1459252438     -0.0217923843
H       1.2275121607     -2.0798328892     -0.1005723278
12
step 61  E = -12.76248382 Ha  |g|max = 0.003737
C       1.3604495172      0.0997721395      0.0014302285
C       0.6064775702      1.3333094521      0.0778034769
C      -0.8363481134      1.2959372359      0.0455110904
C      -1.5285011665      0.0317450582     -0.0070341999
C      -0.7746800639     -1.2040936636     -0.0236297853
C       0.6682841580     -1.1645586436     -0.0474194125
H       2.4325982620      0.1280501086     -0.0160676081
H       1.1192246767      2.2715132235      0.1527366593
H      -1.3959020027      2.2138480615      0.0629981495
H      -2.6005489918      0.0048134709     -0.0317451100
H      -1.2879100627     -2.1450288638     -0.0230381951
H       1.2281205533     -2.0809530786     -0.1000464192
12
step 62  E = -12.76248997 Ha  |g|max = 0.004062
C       1.3595601156      0.1030579861      0.0018429883
C       0.6076384587      1.3303212528      0.0771815965
C      -0.8371190899      1.2988556053      0.0457855354
C      -1.5276274979      0.0284377006     -0.0068677424
C      -0.7758360576     -1.2010737352     -0.0240284639
C       0.6690534433     -1.1674792377     -0.0473673963
H       2.4329520585      0.1278685802     -0.0153929382
H       1.1195935754      2.2724183519      0.1515332565
H      -1.3953516996      2.2127620061      0.0635472023
H      -2.6009039175      0.0049658676     -0.0310110401
H      -1.2882433720     -2.1458511061     -0.0243587765
H       1.2275483190     -2.0799287711     -0.0993653471
12
step 63  E = -12.76250666 Ha  |g|max = 0.003726
C       1.3604414184      0.0997506285      0.0018664594
C       0.6064769635      1.3333465324      0.0769630426
C      -0.8363771757      1.2959642458      0.0458720084
C      -1.5285002499      0.0317354838     -0.0065848987
C      -0.7746758268     -1.2040653353     -0.0244804159
C       0.6683071671     -1.1646107696     -0.0470549748
H       2.4326049867      0.1280940901     -0.0147427472
H       1.1193763767      2.2715990882      0.1503235867
H      -1.3959800327      2.2138337290      0.0640848077
H      -2.6005689340      0.0047103482     -0.0303360902
H      -1.2879967808     -2.1449571985     -0.0255445461
H       1.2281564239     -2.0810463419     -0.0988673573
12
step 64  E = -12.76251139 Ha  |g|max = 0.004073
C       1.3595528015      0.1030372927      0.0022680250
C       0.6076414205      1.3303594246      0.0763621335
C      -0.8371498135      1.2988801850      0.0461402101
C      -1.5276249545      0.0284281262     -0.0064304490
C      -0.7758359933     -1.2010470658     -0.0248576606
C       0.6690784433     -1.1675301653     -0.0470090645
H       2.4329576068      0.1279051231     -0.0140948339
H       1.1197333222      2.2725029996      0.1491681247
H      -1.3954233422      2.2127445250      0.0646111690
H      -2.6009227967      0.0048686785     -0.0296325913
H      -1.2883232759     -2.1457796655     -0.0268125831
H       1.2275809180     -2.0800149574     -0.0982136055
12
step 65  E = -12.76252755 Ha  |g|max = 0.003717
C       1.3604347488      0.0997299352      0.0022849271
C       0.6064765108      1.3333823676      0.0761590052
C      -0.8364018831      1.2959855406      0.0462180677
C      -1.5284996752      0.0317259945     -0.0061548754
C      -0.7746719042     -1.2040386538     -0.0252936946
C       0.6683267486     -1.1646566358     -0.0467052663
H       2.4326105511      0.1281244252     -0.0134733486
H       1.1195073277      2.2716852898      0.1480106128
H      -1.3960479425      2.2138157985      0.0651270289
H      -2.6005861772      0.0046185145     -0.0289899218
H      -1.2880722766     -2.1448886000     -0.0279420468
H       1.2281883079     -2.0811294754     -0.0977416136
12
step 66  E = -12.76253101 Ha  |g|max = 0.004081
C       1.3595461625      0.1030173646      0.0026756382
C       0.6076445916      1.3303959074      0.0755783689
C      -0.8371763606      1.2988990671      0.0464801410
C      -1.5276224040      0.0284186370     -0.0060119950
C      -0.7758361905     -1.2010216633     -0.0256502273
C       0.6691001232     -1.1675746098     -0.0466653691
H       2.4329629372      0.1279292909     -0.0128515446
H       1.1198541782      2.2725882378      0.1469020424
H      -1.3954860479      2.2127246625      0.0656312145
H      -2.6009398759      0.0047819742     -0.0283160730
H      -1.2883930206     -2.1457118387     -0.0291590226
H       1.2276102429     -2.0800925287     -0.0971142989
12
step 67  E = -12.76254664 Ha  |g|max = 0.003709
C       1.3604296407      0.0997100070      0.0026863419
C       0.6064763645      1.3334172543      0.0753897807
C      -0.8364229780      1.2960021148      0.0465498359
C      -1.5284997761      0.0317166410     -0.0057432240
C      -0.7746684396     -1.2040137654     -0.0260713231
C       0.6683434724     -1.1646971768     -0.0463698173
H       2.4326157304      0.1281434997     -0.0122572095
H       1.1196208022      2.2717716507      0.1457939274
H      -1.3961075534      2.2137958068      0.0661264624
H      -2.6006017173      0.0045364016     -0.0277038117
H      -1.2881382901     -2.1448234116     -0.0302353582
H       1.2282170805     -2.0812045210     -0.0966667298
12
step 68  E = -12.76254898 Ha  |g|max = 0.004087
C       1.3595404148      0.1029981808      0.0030665266
C       0.6076480391      1.3304310451      0.0748287266
C      -0.8371995070      1.2989134749      0.0468059211
C      -1.5276201818      0.0284092834     -0.0056114996
C      -0.7758367368     -1.2009977229     -0.0264078553
C       0.6691191023     -1.1676137501     -0.0463358251
H       2.4329684452      0.1279432719     -0.0116608215
H       1.1199590304      2.2726736355      0.1447310898
H      -1.3955412246      2.2127033543      0.0666090164
H      -2.6009557938      0.0047043060     -0.0270586551
H      -1.2884540868     -2.1456476543     -0.0314028119
H       1.2276368352     -2.0801629235     -0.0960649374
12
step 69  E = -12.76256410 Ha  |g|max = 0.003704
C       1.3604259662      0.0996908232      0.0030713601
C       0.6064765061      1.3334512538      0.0746538667
C      -0.8364410408      1.2960148271      0.0468678675
C      -1.5285005825      0.0317074659     -0.0053491201
C      -0.7746654112     -1.2039905965     -0.0268148913
C       0.6683577870     -1.1647331939     -0.0460481491
H       2.4326208648      0.1281533177     -0.0110922117
H       1.1197194237      2.2718577483      0.1436698331
H      -1.3961601490      2.2137745896      0.0670846909
H      -2.6006160889      0.0044626823     -0.0264750873
H      -1.2881961731     -2.1447616241     -0.0324289247
H       1.2282432338     -2.0812727921     -0.0956403595
12
step 70  E = -12.76256545 Ha  |g|max = 0.004092
C       1.3595355781      0.1029797227      0.0034413440
C       0.6076517514      1.3304649924      0.0741117066
C      -0.8372198148      1.2989242692      0.0471181217
C      -1.5276184080      0.0284001083     -0.0052281522
C      -0.7758376339     -1.2009752562     -0.0271321342
C       0.6691358205     -1.1676484232     -0.0460199318
H       2.4329742160      0.1279489079     -0.0105204998
H       1.1200502207      2.2727586444      0.1426514657
H      -1.3955899627      2.2126811923      0.0675461962
H      -2.6009708364      0.0046344454     -0.0258576294
H      -1.2885076474     -2.1455869148     -0.0335484583
H       1.2276610526     -2.0802271870     -0.0950631540
12
step 71  E = -12.76258007 Ha  |g|max = 0.003700
C       1.3604235356      0.0996723651      0.0034406032
C       0.6064768813      1.3334843510      0.0739498299
C      -0.8364565271      1.2960243432      0.0471727015
C      -1.5285020309      0.0316985013     -0.0049717984
C      -0.7746627614     -1.2039690092     -0.0275259047
C       0.6683700404     -1.1647653119     -0.0457397752
H       2.4326260522      0.1281555684     -0.0099763038
H       1.1198053415      2.2719430914      0.1416347234
H      -1.3962067260      2.2137526720      0.0680032553
H      -2.6006295537      0.0043962287     -0.0253011785
H      -1.2882470116     -2.1447030523     -0.0345270188
H       1.2282670958     -2.0813352463     -0.0946602594
12
step 72  E = -12.76258054 Ha  |g|max = 0.004096
C       1.3595315793      0.1029619718      0.0038007116
C       0.6076556794      1.3304978092      0.0734258792
C      -0.8372377169      1.2989321040      0.0474172931
C      -1.5276170917      0.0283911438     -0.0048611971
C      -0.7758388407     -1.2009541890     -0.0278245668
C       0.6691506118     -1.1676792745     -0.0457171861
H       2.4329802103      0.1279477496     -0.0094284966
H       1.1201296934      2.2728427353      0.1406594917
H      -1.3956331371      2.2126585664      0.0684443255
H      -2.6009851313      0.0045713476     -0.0247104069
H      -1.2885546711     -2.1455293466     -0.0356002740
H       1.2276831507     -2.0802861160     -0.0941066990
12
step 73  E = -12.76259467 Ha  |g|max = 0.003697
C       1.3604221511      0.0996546143      0.0037946659
C       0.6064774288      1.3335165065      0.0732763005
C      -0.8364698078      1.2960311980      0.0474648593
C      -1.5285040258      0.0316897707     -0.0046105400
C      -0.7746604250     -1.2039488507     -0.0282057949
C       0.6683805153     -1.1647940389     -0.0454442095
H       2.4326312831      0.1281516752     -0.0089075031
H       1.1198803477      2.2720272155      0.1396850927
H      -1.3962480905      2.2137304043      0.0688836575
H      -2.6006422398      0.0043360799     -0.0241796194
H      -1.2882917086     -2.1446474488     -0.0365337464
H       1.2282889075     -2.0813926244     -0.0937242881
12
step 74  E = -12.76263205 Ha  |g|max = 0.001127
C       1.3599752314      0.1012997619      0.0039699453
C       0.6070685959      1.3320230101      0.0730230907
C      -0.8368616836      1.2974843470      0.0475844116
C      -1.5280601093      0.0300360920     -0.0045602315
C      -0.7752503633     -1.2024416325     -0.0283461872
C       0.6687721286     -1.1662504307     -0.0454356500
H       2.4328088140      0.1280463885     -0.0086451565
H       1.1200397157      2.2724763314      0.1392183540
H      -1.3959597812      2.2131830765      0.0690942926
H      -2.6008204871      0.0044251013     -0.0238970677
H      -1.2884438439     -2.1450610572     -0.0370480653
H       1.2279961187     -2.0808664867     -0.0934588614
12
step 75  E = -12.76264727 Ha  |g|max = 0.005156
C       1.3604551945      0.0989058031      0.0061886284
C       0.6063483144      1.3342832419      0.0687002908
C      -0.8365044106      1.2955056103      0.0494535427
C      -1.5285571728      0.0322570947     -0.0021219916
C      -0.7745116649     -1.2043578799     -0.0328648208
C       0.6683971326     -1.1644208038     -0.0433885579
H       2.4325880482      0.1281265259     -0.0015731325
H       1.1202448999      2.2723754529      0.1262927621
H      -1.3965547063      2.2136728622      0.0749254859
H      -2.6006479860      0.0039061541     -0.0165044964
H      -1.2884682468     -2.1440258760     -0.0502774956
H       1.2284749339     -2.0818736834     -0.0873313401
12
step 76  E = -12.76269702 Ha  |g|max = 0.002619
C       1.3597098125      0.1022034591      0.0064371945
C       0.6073809862      1.3312975817      0.0683797889
C      -0.8371136274      1.2983847359      0.0496259135
C      -1.5278138011      0.0289497371     -0.0021271704
C      -0.7755441312     -1.2013578725     -0.0329571269
C       0.6690071360     -1.1673047713     -0.0434376804
H       2.4328905978      0.1279053926     -0.0013173208
H       1.1205595988      2.2732888084      0.1258506520
H      -1.3960091897      2.2126443586      0.0751208782
H      -2.6009502317      0.0041060575     -0.0162273621
H      -1.2887816703     -2.1448998775     -0.0507963584
H       1.2279288563     -2.0808631075     -0.0870525332
12
step 77  E = -12.76271186 Ha  |g|max = 0.001283
C       1.3600873904      0.1005497803      0.0064485943
C       0.6068848590      1.3328104817      0.0682904349
C      -0.8368174863      1.2969321326      0.0496485902
C      -1.5281907977      0.0305969131     -0.0019882754
C      -0.7750472120     -1.2028585502     -0.0331624169
C       0.6687102433     -1.1658586425     -0.0433024356
H       2.4327525079      0.1279960656     -0.0010472082
H       1.1204087667      2.2728761597      0.1253441151
H      -1.3962988885      2.2131686628      0.0753544233
H      -2.6008132513      0.0039939676     -0.0159587516
H      -1.2886301458     -2.1444484331     -0.0512744411
H       1.2282183505     -2.0814040355     -0.0868537543
12
step 78  E = -12.76271706 Ha  |g|max = 0.000746
C       1.3599032721      0.1013690303      0.0065767045
C       0.6071389571      1.3320718180      0.0680880122
C      -0.8369711504      1.2976568913      0.0497459471
C      -1.5280071532      0.0297700737     -0.0019230673
C      -0.7753006718     -1.2021066328     -0.0333084451
C       0.6688639056     -1.1665889054     -0.0432604805
H       2.4328311051      0.1279308514     -0.0007871860
H       1.1204900088      2.2731240104      0.1248751612
H      -1.3961617236      2.2129006143      0.0755656568
H      -2.6008925441      0.0040380693     -0.0156890648
H      -1.2887105155     -2.1446580698     -0.0517671243
H       1.2280808461     -2.0811532486     -0.0866172390
