12
step 0  E = -12.76277925 Ha
C       1.3602905516      0.1009647929      0.0119018470
C       0.6070406289      1.3325075187      0.0591079368
C      -0.8372904826      1.2967796067      0.0521974767
C      -1.5271205418      0.0295270022      0.0020229379
C      -0.7744447500     -1.2018273122     -0.0430592585
C       0.6693224911     -1.1677931639     -0.0390290714
H       2.4332367529      0.1307337978      0.0151168204
H       1.1206259820      2.2739911210      0.0989876499
H      -1.3971203072      2.2113090660      0.0859263072
H      -2.5995926147      0.0021428059      0.0015532038
H      -1.2926314078     -2.1411221390     -0.0819196979
H       1.2289480307     -2.0828585837     -0.0713072778
12
step 1  E = -12.76278102 Ha  |g|max = 0.000530
C       1.3601268767      0.1007982755      0.0119517980
C       0.6069520595      1.3324128169      0.0589914378
C      -0.8369395211      1.2969225807      0.0523242943
C      -1.5272497696      0.0297186867      0.0021172820
C      -0.7747164893     -1.2023244990     -0.0431774042
C       0.6696575486     -1.1672372963     -0.0389597116
H       2.4331507880      0.1304869362      0.0151575685
H       1.1206119861      2.2740033105      0.0989220860
H      -1.3972077377      2.2115226601      0.0859712969
H      -2.5998183869      0.0021522667      0.0014255991
H      -1.2922485079     -2.1412006986     -0.0818349731
H       1.2289454868     -2.0829005273     -0.0713903996
12
step 2  E = -12.76278294 Ha  |g|max = 0.000462
C       1.3602332854      0.1007967472      0.0121301411
C       0.6069959411      1.3325543249      0.0586541963
C      -0.8365392695      1.2975435246      0.0527353174
C      -1.5273942279      0.0294470986      0.0023829236
C      -0.7748997448     -1.2020963390     -0.0434638258
C       0.6698047378     -1.1668832104     -0.0387996040
H       2.4327569544      0.1296478726      0.0153021240
H       1.1205123601      2.2738819554      0.0986747730
H      -1.3972413172      2.2119999499      0.0861278582
H      -2.6004804170      0.0022997467      0.0010003559
H      -1.2913324525     -2.1422369139     -0.0815909966
H       1.2288484841     -2.0826002452     -0.0716543893
12
step 3  E = -12.76278501 Ha  |g|max = 0.000450
C       1.3599956286      0.1007899238      0.0123489582
C       0.6071077952      1.3329409862      0.0582902419
C      -0.8371005926      1.2973992285      0.0532371601
C      -1.5278677630      0.0299160488      0.0027485642
C      -0.7748263677     -1.2020226304     -0.0437662074
C       0.6693209859     -1.1668933569     -0.0386317316
H       2.4328473248      0.1284302914      0.0155551947
H       1.1206052157      2.2740080557      0.0982339102
H      -1.3970207410      2.2126164428      0.0864170408
H      -2.6007744219      0.0025765151      0.0003583666
H      -1.2897442594     -2.1434144019     -0.0812430239
H       1.2287215303     -2.0819925924     -0.0720496003
12
step 4  E = -12.76278566 Ha  |g|max = 0.000159
C       1.3599171353      0.1009749714      0.0124125078
C       0.6069557615      1.3327190609      0.0582199260
C      -0.8372694435      1.2974918374      0.0533925782
C      -1.5280143252      0.0299272844      0.0028396854
C      -0.7749919526     -1.2021736168     -0.0438021221
C       0.6690333724     -1.1667704567     -0.0385921193
H       2.4328802034      0.1279503203      0.0156746612
H       1.1207437053      2.2742626285      0.0980153268
H      -1.3968555528      2.2127233451      0.0865643201
H      -2.6008403217      0.0027202348      0.0001048749
H      -1.2890157249     -2.1436075723     -0.0811188208
H       1.2287214781     -2.0818635266     -0.0722119449
12
step 5  E = -12.76278590 Ha  |g|max = 0.000129
C       1.3599600592      0.1009525808      0.0123953149
C       0.6068695482      1.3328639773      0.0583438670
C      -0.8372492782      1.2974338799      0.0533945731
C      -1.5279892059      0.0297048500      0.0028014927
C      -0.7751444974     -1.2020916524     -0.0436581188
C       0.6689369736     -1.1665763429     -0.0386153237
H       2.4327853992      0.1277111322      0.0157798389
H       1.1207025189      2.2742506388      0.0977839663
H      -1.3967332748      2.2127142010      0.0867184945
H      -2.6009059023      0.0028545690     -0.0000460149
H      -1.2886603622     -2.1436416557     -0.0810848287
H       1.2286923571     -2.0818216679     -0.0723143879
12
step 6  E = -12.76278607 Ha  |g|max = 0.000097
C       1.3598251965      0.1009654553      0.0123657877
C       0.6068326782      1.3329168742      0.0585239491
C      -0.8371296508      1.2973110269      0.0533611624
C      -1.5281406311      0.0296599869      0.0027343394
C      -0.7751179788     -1.2020349539     -0.0434509188
C       0.6690341921     -1.1664826422     -0.0386557861
H       2.4327543826      0.1275045190      0.0159009908
H       1.1206242341      2.2742666507      0.0975049295
H      -1.3966250754      2.2126480285      0.0869087987
H      -2.6009141164      0.0029922293     -0.0002047696
H      -1.2884297286     -2.1437306510     -0.0810688991
H       1.2285508332     -2.0816620135     -0.0724207108
