12
benzene optimised (CG)  E = -12.76277925 Ha  |g|max = 0.000745
C       1.3602905516      0.1009647929      0.0119018470
C       0.6070406289      1.3325075187      0.0591079368
C      -0.8372904826      1.2967796067      0.0521974767
C      -1.5271205418      0.0295270022      0.0020229379
C      -0.7744447500     -1.2018273122     -0.0430592585
C       0.6693224911     -1.1677931639     -0.0390290714
H       2.4332367529      0.1307337978      0.0151168204
H       1.1206259820      2.2739911210      0.0989876499
H      -1.3971203072      2.2113090660      0.0859263072
H      -2.5995926147      0.0021428059      0.0015532038
H      -1.2926314078     -2.1411221390     -0.0819196979
H       1.2289480307     -2.0828585837     -0.0713072778
