12
benzene_sd optimised  E = -12.76271706 Ha  |g|max = 0.000746 Ha/a0
C       1.3599032721      0.1013690303      0.0065767045
C       0.6071389571      1.3320718180      0.0680880122
C      -0.8369711504      1.2976568913      0.0497459471
C      -1.5280071532      0.0297700737     -0.0019230673
C      -0.7753006718     -1.2021066328     -0.0333084451
C       0.6688639056     -1.1665889054     -0.0432604805
H       2.4328311051      0.1279308514     -0.0007871860
H       1.1204900088      2.2731240104      0.1248751612
H      -1.3961617236      2.2129006143      0.0755656568
H      -2.6008925441      0.0040380693     -0.0156890648
H      -1.2887105155     -2.1446580698     -0.0517671243
H       1.2280808461     -2.0811532486     -0.0866172390
