14
step 9  E = -10.99951153 Ha
C      -0.0282159828      0.1259737207      0.5593815585
C       1.2180377699     -0.0627424288     -0.3920658593
C       2.5771456517      0.0048590635      0.4281214699
C       3.4586829152      1.2010539606     -0.0987846944
H      -0.4851591954     -0.8215701614      0.8079099992
H      -0.7615456441      0.7410659439      0.0704081975
H       0.2679986729      0.6101311851      1.4817145294
H       1.2235203109      0.7243039727     -1.1313973008
H       1.1491761835     -1.0133445197     -0.9004609415
H       3.1039707891     -0.9323451274      0.3305380891
H       2.3443411822      0.1522880665      1.4772714656
H       2.8378759706      2.0786694241     -0.2331674947
H       3.9025186947      0.9640990612     -1.0557154729
H       4.2430130859      1.4462696594      0.5880780641
