14
step 0  E = -10.98409402 Ha
C       0.0037612044      0.1495722294      0.5588968002
C       1.2183287971     -0.0327766462     -0.4821897428
C       2.6115950504     -0.0061670883      0.5063348994
C       3.3909521182      1.1710420947     -0.0904186672
H      -0.4228863339     -0.8255602512      0.7938191774
H      -0.7631186981      0.7843011625      0.1149211290
H       0.3750829181      0.6134174783      1.4727172258
H       1.2362509228      0.7692191718     -1.2201474010
H       1.1361597145     -0.9702091125     -1.0322521148
H       3.1720148840     -0.9393461172      0.4497088437
H       2.3661660738      0.1549836744      1.5560467880
H       2.7187855414      2.0173777859     -0.2318682726
H       3.8128557482      0.8775048105     -1.0516331020
H       4.1954124218      1.4553519203      0.5878965568
14
step 1  E = -10.99166035 Ha  |g|max = 0.020412
C       0.0062795857      0.1482660874      0.5453013882
C       1.2378626320     -0.0408214216     -0.4419371564
C       2.5683488185     -0.0247456534      0.4803565505
C       3.4132281514      1.1900088271     -0.0923971131
H      -0.4214183006     -0.8202507389      0.7934258374
H      -0.7610661586      0.7811167307      0.1185234135
H       0.3719429649      0.6112477809      1.4681662971
H       1.2385087291      0.7673683408     -1.2124226074
H       1.1367516370     -0.9672913074     -1.0262616711
H       3.1684006968     -0.9350799097      0.4461343407
H       2.3630869987      0.1563827227      1.5488243306
H       2.7238057950      2.0145894438     -0.2314047905
H       3.8114987071      0.8805914651     -1.0473245375
H       4.1941301069      1.4573287593      0.5828478305
14
step 2  E = -10.99483428 Ha  |g|max = 0.015301
C       0.0106861641      0.1458367722      0.5449811542
C       1.2442158812     -0.0514259250     -0.4262952561
C       2.5535807574     -0.0177882615      0.4572997704
C       3.4028654288      1.1795911653     -0.0926839579
H      -0.4194170537     -0.8105347686      0.7911922457
H      -0.7591565115      0.7776291370      0.1187286511
H       0.3607362904      0.6042051998      1.4528972054
H       1.2476867036      0.7462382376     -1.1730103407
H       1.1410003967     -0.9549122679     -1.0021347029
H       3.1528396985     -0.9278256250      0.4333182607
H       2.3527806926      0.1548686083      1.5174425065
H       2.7366501366      2.0167166140     -0.2319291015
H       3.8167381323      0.8893996329     -1.0465894534
H       4.2101536504      1.4667126475      0.5886151070
14
step 3  E = -10.99618511 Ha  |g|max = 0.009166
C       0.0073471786      0.1445854899      0.5400347739
C       1.2328896367     -0.0524863341     -0.4215667255
C       2.5644870776     -0.0181118451      0.4572794150
C       3.4130577560      1.1814610296     -0.0864744378
H      -0.4208276957     -0.8096636539      0.7909878767
H      -0.7564854200      0.7747674957      0.1166546622
H       0.3557104901      0.6038581943      1.4514940680
H       1.2548326336      0.7363142496     -1.1480532810
H       1.1438158667     -0.9583820889     -0.9885414947
H       3.1391686369     -0.9229455221      0.4206226477
H       2.3422946064      0.1547465079      1.4956982507
H       2.7442685844      2.0216676107     -0.2331971197
H       3.8213809577      0.8958559708     -1.0476210389
H       4.2094200610      1.4670440970      0.5845144680
14
step 4  E = -10.99735684 Ha  |g|max = 0.011313
C      -0.0050097537      0.1429625546      0.5446353815
C       1.2324582627     -0.0611313782     -0.4015728574
C       2.5702294058     -0.0094795903      0.4474812345
C       3.4287590320      1.1936281386     -0.0918393090
H      -0.4280097799     -0.8165288740      0.7918943875
H      -0.7576494055      0.7743658134      0.1068226212
H       0.3491515736      0.6068751269      1.4556400668
H       1.2638296530      0.7435139614     -1.1308435516
H       1.1456996940     -0.9801523457     -0.9743088539
H       3.1286601261     -0.9338152094      0.3977304416
H       2.3229871321      0.1574599752      1.4838237582
H       2.7590379228      2.0279876765     -0.2332524546
H       3.8303347975      0.9072037916     -1.0463610789
H       4.2108817141      1.4658216279      0.5819822311
14
step 5  E = -10.99795582 Ha  |g|max = 0.005759
C      -0.0096562566      0.1399981964      0.5546939123
C       1.2341289538     -0.0656415844     -0.4042546863
C       2.5740566538     -0.0071869724      0.4437993856
C       3.4272270422      1.1961876466     -0.0983760033
H      -0.4357688480     -0.8218921657      0.7933956974
H      -0.7611949543      0.7753201739      0.0975592072
H       0.3416951189      0.6089036253      1.4591058100
H       1.2669672786      0.7456139366     -1.1192904843
H       1.1472651811     -0.9909405068     -0.9604895631
H       3.1223793781     -0.9399089934      0.3820331429
H       2.3130468287      0.1599420361      1.4805162846
H       2.7694982341      2.0358285486     -0.2335088836
H       3.8409682425      0.9151470878     -1.0503500646
H       4.2207475254      1.4673402957      0.5869982222
14
step 6  E = -10.99831139 Ha  |g|max = 0.004763
C      -0.0103438477      0.1373702175      0.5522748870
C       1.2312896199     -0.0658835781     -0.4062070319
C       2.5716988063     -0.0124206315      0.4436425427
C       3.4331673938      1.1949576551     -0.0950577603
H      -0.4443930769     -0.8252264697      0.7962910550
H      -0.7609599056      0.7716959493      0.0926924673
H       0.3335558888      0.6116060697      1.4662485366
H       1.2653094920      0.7453044697     -1.1145816531
H       1.1486675683     -0.9969241935     -0.9484302277
H       3.1181989343     -0.9403491655      0.3708174765
H       2.3110747219      0.1614913029      1.4790095503
H       2.7754015284      2.0480706915     -0.2349590041
H       3.8526532566      0.9220119216     -1.0577636959
H       4.2260400020      1.4670071435      0.5878547935
14
step 7  E = -10.99865477 Ha  |g|max = 0.008930
C      -0.0126378076      0.1337792405      0.5518458977
C       1.2274913172     -0.0664801580     -0.3966104135
C       2.5637822632     -0.0106663760      0.4402462809
C       3.4391696442      1.1962765930     -0.0988094826
H      -0.4550733946     -0.8222465788      0.7994039800
H      -0.7574105081      0.7614383481      0.0886560828
H       0.3166363020      0.6110210805      1.4697071056
H       1.2575346680      0.7456474241     -1.1199779990
H       1.1496243168     -1.0036177024     -0.9352582059
H       3.1159812620     -0.9420641693      0.3586618580
H       2.3162789629      0.1602110757      1.4788778067
H       2.7911014620      2.0571504408     -0.2348041553
H       3.8666762423      0.9343644788     -1.0583235748
H       4.2322056579      1.4638977862      0.5882166817
14
step 8  E = -10.99911785 Ha  |g|max = 0.005653
C      -0.0196897777      0.1282568446      0.5616618643
C       1.2204967628     -0.0639312880     -0.3960656368
C       2.5690287735     -0.0042638118      0.4346129254
C       3.4441140425      1.1992731570     -0.1020282852
H      -0.4698373448     -0.8169150149      0.8030846187
H      -0.7558696337      0.7484859075      0.0803026531
H       0.2896147995      0.6081295367      1.4711348597
H       1.2423625381      0.7372658611     -1.1256236449
H       1.1503170404     -1.0095797769     -0.9159729719
H       3.1098320029     -0.9391189790      0.3433043633
H       2.3280015423      0.1566852219      1.4798922866
H       2.8176173654      2.0663902689     -0.2338373976
H       3.8861779023      0.9516058235     -1.0567047144
H       4.2391943838      1.4564278953      0.5880708209
