14
SD anti structure, dihedral twisted 12 deg to break C2h
C      -0.0477868050     -0.0019160410      0.4332406321
C       1.2615359485     -0.0035510330     -0.4501783074
C       2.5618517781      0.0035510330      0.4501783074
C       3.8522356387      0.3079804640     -0.4083028995
H      -0.3459126212      1.0151095572      0.6462017953
H       0.1333769624     -0.5138162925      1.3677728760
H      -0.8514139738     -0.5022996409     -0.0894388776
H       1.2659479964      0.8691740777     -1.0890017332
H       1.2709819626     -0.8794073510     -1.0840608504
H       2.5574397302     -0.8691740777      1.0890017332
H       2.5524057640      0.8794073510      1.0840608504
H       4.2661628316     -0.6151217330     -0.7892479605
H       4.5968218532      0.8032949505      0.1996849062
H       3.6013792558      0.9469285170     -1.2431856181
