14
step 0  E = -10.99717069 Ha
C      -0.0477868050     -0.0019160410      0.4332406321
C       1.2615359485     -0.0035510330     -0.4501783074
C       2.5618517781      0.0035510330      0.4501783074
C       3.8522356387      0.3079804640     -0.4083028995
H      -0.3459126212      1.0151095572      0.6462017953
H       0.1333769624     -0.5138162925      1.3677728760
H      -0.8514139738     -0.5022996409     -0.0894388776
H       1.2659479964      0.8691740777     -1.0890017332
H       1.2709819626     -0.8794073510     -1.0840608504
H       2.5574397302     -0.8691740777      1.0890017332
H       2.5524057640      0.8794073510      1.0840608504
H       4.2661628316     -0.6151217330     -0.7892479605
H       4.5968218532      0.8032949505      0.1996849062
H       3.6013792558      0.9469285170     -1.2431856181
14
step 1  E = -10.99837399 Ha  |g|max = 0.011553
C      -0.0484446180     -0.0021832569      0.4327654042
C       1.2615241765     -0.0039875432     -0.4494665777
C       2.5597562179      0.0264432391      0.4508802484
C       3.8575997125      0.2891473912     -0.4116590583
H      -0.3464151805      1.0150886776      0.6464466097
H       0.1323868484     -0.5141807658      1.3681311154
H      -0.8518147716     -0.5019241700     -0.0894085577
H       1.2654214982      0.8689674829     -1.0889183816
H       1.2705716346     -0.8798173423     -1.0840287038
H       2.5682076875     -0.8705945074      1.0834267321
H       2.5399526056      0.8775481632      1.0919469008
H       4.2695186851     -0.6142411966     -0.7914592999
H       4.5963690130      0.8027627199      0.2004021193
H       3.6003928142      0.9471308766     -1.2423337035
14
step 2  E = -11.00054684 Ha  |g|max = 0.003919
C      -0.0503515219     -0.0027762879      0.4331455229
C       1.2594262391      0.0012315292     -0.4490680918
C       2.5584963925      0.0519982540      0.4516879207
C       3.8624893746      0.2783215659     -0.4137556102
H      -0.3483510449      1.0145237515      0.6472128737
H       0.1280092972     -0.5152565545      1.3685509265
H      -0.8543120861     -0.5009473016     -0.0900318857
H       1.2610284244      0.8671697533     -1.0894788303
H       1.2714165143     -0.8813305179     -1.0818859672
H       2.6086537009     -0.8533565973      1.0488533829
H       2.4928716457      0.8939273917      1.1353589496
H       4.2919125278     -0.6403236769     -0.8091571773
H       4.5905356404      0.7914828922      0.1960803057
H       3.6032012277      0.9354955129     -1.2307874984
14
step 3  E = -11.00077725 Ha  |g|max = 0.006044
C      -0.0515518334     -0.0017609263      0.4337276318
C       1.2594603754     -0.0023536213     -0.4485340790
C       2.5595894983      0.0526473085      0.4565613473
C       3.8621028597      0.2764086833     -0.4146920847
H      -0.3493730053      1.0140651720      0.6477026942
H       0.1265103214     -0.5157669909      1.3683984868
H      -0.8552473853     -0.5006999181     -0.0905818524
H       1.2575061559      0.8701945807     -1.0932230674
H       1.2733256944     -0.8784046517     -1.0777346473
H       2.6185578546     -0.8480296076      1.0406868108
H       2.4834742589      0.8916138279      1.1385191794
H       4.2891492633     -0.6381345224     -0.8065239428
H       4.5949670315      0.7875406468      0.1961893416
H       3.6065552449      0.9328397130     -1.2337710088
14
step 4  E = -11.00125698 Ha  |g|max = 0.004244
C      -0.0545956454     -0.0033581996      0.4335589340
C       1.2613116378      0.0071277568     -0.4431334258
C       2.5603755845      0.0603377976      0.4527225796
C       3.8592759423      0.2852552558     -0.4086196542
H      -0.3531027839      1.0150596495      0.6497100774
H       0.1212905730     -0.5172011652      1.3679667636
H      -0.8576881071     -0.4991162024     -0.0917653093
H       1.2462147013      0.8702976656     -1.0987772173
H       1.2803697117     -0.8780945246     -1.0694503844
H       2.6468554366     -0.8475261445      1.0294856899
H       2.4605075084      0.8820015855      1.1435138490
H       4.2758145246     -0.6331636348     -0.7954412366
H       4.6099145272      0.7731711816      0.1941403548
H       3.6184827320      0.9253686065     -1.2471862501
14
step 5  E = -11.00141203 Ha  |g|max = 0.003381
C      -0.0545149904     -0.0006784239      0.4345194438
C       1.2580912553      0.0074137338     -0.4463840369
C       2.5593735395      0.0610190566      0.4516232630
C       3.8612425445      0.2933437481     -0.4115105105
H      -0.3547877012      1.0137583444      0.6505396791
H       0.1187500122     -0.5182777003      1.3681433221
H      -0.8590017627     -0.4988535047     -0.0932787906
H       1.2418977060      0.8688535200     -1.0990413321
H       1.2834472554     -0.8764415940     -1.0646857794
H       2.6564835194     -0.8494456658      1.0261904900
H       2.4538654921      0.8810953209      1.1478239610
H       4.2683723855     -0.6346245118     -0.7898548431
H       4.6170049635      0.7694572601      0.1942477238
H       3.6248021273      0.9235400158     -1.2516078385
14
step 6  E = -11.00151976 Ha  |g|max = 0.002480
C      -0.0565310970     -0.0020614609      0.4335010350
C       1.2548452128      0.0054474027     -0.4457405839
C       2.5588310211      0.0633511660      0.4506899481
C       3.8648753805      0.2951261083     -0.4125313207
H      -0.3572679935      1.0144408612      0.6521870108
H       0.1162701161     -0.5191377840      1.3679935262
H      -0.8579805295     -0.4968432366     -0.0937944035
H       1.2382839267      0.8683662246     -1.0996527444
H       1.2852993314     -0.8784111081     -1.0630593689
H       2.6621980038     -0.8519575461      1.0225931038
H       2.4515022814      0.8811317375      1.1525935982
H       4.2587443027     -0.6380871299     -0.7835675529
H       4.6243561300      0.7701802575      0.1948070203
H       3.6316002628      0.9286140811     -1.2592945395
14
step 7  E = -11.00160713 Ha  |g|max = 0.001659
C      -0.0585667261     -0.0015539983      0.4357716785
C       1.2554442389      0.0052227201     -0.4440937880
C       2.5604594881      0.0663227380      0.4517757311
C       3.8647806341      0.3007177834     -0.4131145022
H      -0.3593963106      1.0136893284      0.6535046912
H       0.1134410747     -0.5200278673      1.3671064605
H      -0.8590937375     -0.4959068374     -0.0958131853
H       1.2347281921      0.8664732306     -1.0995007942
H       1.2858930312     -0.8831512909     -1.0635750350
H       2.6650276114     -0.8517239025      1.0168631094
H       2.4519657117      0.8799175908      1.1560972899
H       4.2497890395     -0.6449302223     -0.7783775908
H       4.6297723875      0.7716666480      0.1936278253
H       3.6407817177      0.9334436268     -1.2635471895
14
step 8  E = -11.00166998 Ha  |g|max = 0.001993
C      -0.0587454014     -0.0010947216      0.4349032592
C       1.2573935756      0.0020789072     -0.4435478317
C       2.5622979771      0.0707673810      0.4511075473
C       3.8661137194      0.3016045930     -0.4140810948
H      -0.3612580518      1.0133241686      0.6549702286
H       0.1106641244     -0.5221527133      1.3683930963
H      -0.8611056788     -0.4953985127     -0.0979555319
H       1.2320538155      0.8637040601     -1.0989461268
H       1.2851554998     -0.8844849163     -1.0617032529
H       2.6655602137     -0.8497285889      1.0107905047
H       2.4547422410      0.8789574938      1.1594879281
H       4.2410656217     -0.6462805536     -0.7733381395
H       4.6308494569      0.7723285366      0.1897503915
H       3.6502392436      0.9365343934     -1.2631063071
14
step 9  E = -11.00168688 Ha  |g|max = 0.001110
C      -0.0587333227     -0.0029238875      0.4347823332
C       1.2570057917      0.0030967376     -0.4429617491
C       2.5626368590      0.0716677261      0.4496605078
C       3.8659436204      0.3019827868     -0.4136258204
H      -0.3615495966      1.0133048338      0.6553573334
H       0.1092587138     -0.5225940463      1.3680708616
H      -0.8611453623     -0.4947269859     -0.0983601147
H       1.2314638659      0.8619568580     -1.0987773730
H       1.2849050886     -0.8852589405     -1.0607346931
H       2.6655432275     -0.8487303696      1.0087634736
H       2.4562956979      0.8795945798      1.1611372683
H       4.2389459000     -0.6467364334     -0.7724603655
H       4.6310031229      0.7722432684      0.1883457409
H       3.6534527529      0.9372833939     -1.2624727456
14
step 10  E = -11.00170486 Ha  |g|max = 0.000796
C      -0.0595711260     -0.0033810980      0.4357025095
C       1.2549099213      0.0035060272     -0.4419892023
C       2.5610990025      0.0744804842      0.4493559265
C       3.8653180327      0.3019831930     -0.4134300610
H      -0.3605261445      1.0105274848      0.6551969180
H       0.1067402172     -0.5239067859      1.3673372183
H      -0.8608173835     -0.4938552036     -0.0991633629
H       1.2307904042      0.8605359210     -1.1003812845
H       1.2847191408     -0.8853195628     -1.0576234005
H       2.6652857385     -0.8473859569      1.0061540847
H       2.4598217519      0.8805426831      1.1624435331
H       4.2380010023     -0.6474177652     -0.7730585862
H       4.6319275182      0.7717410146      0.1877632769
H       3.6573282889      0.9381090792     -1.2615829386
