18
step 0  E = -15.33331577 Ha
C       1.5168167536     -0.0485595637      0.4064050535
C       0.8171704006      1.2309448355     -0.2071298586
C      -0.7336100086      1.2668820429      0.1055116257
C      -1.4806103967     -0.0715179904     -0.2903963392
C      -0.7551381170     -1.3717282365      0.2457215912
C       0.8002335076     -1.3851803628     -0.0476406283
H       1.5046227131      0.0177971060      1.4861590171
H       2.5512988999     -0.0774874295      0.0878347105
H       0.9702680020      1.2367333804     -1.2770896889
H       1.2787295901      2.1230219135      0.1969056070
H      -1.1805016842      2.0899994593     -0.4353706649
H      -0.8755912369      1.4504102060      1.1616699934
H      -1.5668086400     -0.1295209220     -1.3669798040
H      -2.4824458792     -0.0385241757      0.1173564004
H      -1.2044434531     -2.2354373773     -0.2254917592
H      -0.9192758017     -1.4524995493      1.3118313681
H       1.2473508904     -2.2227093791      0.4724444932
H       0.9628776271     -1.5286404525     -1.1074261748
18
step 1  E = -15.33332288 Ha  |g|max = 0.000745
C       1.5173387727     -0.0491736084      0.4067728088
C       0.8175174481      1.2303763387     -0.2067967936
C      -0.7332536925      1.2672021159      0.1055905684
C      -1.4799941090     -0.0703932622     -0.2909210658
C      -0.7552233485     -1.3714784280      0.2458045587
C       0.8007795232     -1.3844824229     -0.0473237128
H       1.5043540915      0.0177051158      1.4859037686
H       2.5506795812     -0.0772468827      0.0877100194
H       0.9696453809      1.2369155307     -1.2780980089
H       1.2786658640      2.1223142066      0.1974221161
H      -1.1811640388      2.0905453247     -0.4357536389
H      -0.8756708117      1.4504732735      1.1621366670
H      -1.5660578800     -0.1293338163     -1.3672085107
H      -2.4828374573     -0.0390241354      0.1173741258
H      -1.2048953262     -2.2364483471     -0.2252293793
H      -0.9187075204     -1.4526949906      1.3118912151
H       1.2473280687     -2.2223882266      0.4724436859
H       0.9624386187     -1.5288842820     -1.1074034807
18
step 2  E = -15.33332825 Ha  |g|max = 0.000557
C       1.5173390711     -0.0491832929      0.4069776682
C       0.8179956237      1.2295490509     -0.2075572106
C      -0.7330650671      1.2686470841      0.1058395244
C      -1.4801805875     -0.0698712453     -0.2908120231
C      -0.7552232505     -1.3714504363      0.2452760739
C       0.8007032358     -1.3844988135     -0.0473472027
H       1.5040138808      0.0175040251      1.4860797989
H       2.5506186259     -0.0769387969      0.0873405325
H       0.9685263933      1.2371534923     -1.2785710087
H       1.2787720483      2.1211934278      0.1983779014
H      -1.1817721878      2.0909859616     -0.4359581539
H      -0.8757517964      1.4505594480      1.1625495923
H      -1.5646849194     -0.1288547414     -1.3678947073
H      -2.4824838358     -0.0396804704      0.1168483334
H      -1.2051858117     -2.2372170174     -0.2243681144
H      -0.9178128400     -1.4528891151      1.3120895276
H       1.2473719869     -2.2218892141      0.4725236659
H       0.9617625909     -1.5291358447     -1.1070792523
18
step 3  E = -15.33333365 Ha  |g|max = 0.000649
C       1.5168499784     -0.0492703006      0.4063775623
C       0.8173095264      1.2299730517     -0.2079597248
C      -0.7332725105      1.2691154310      0.1059976164
C      -1.4794597521     -0.0697530173     -0.2912789575
C      -0.7553978795     -1.3716408971      0.2454988552
C       0.7999059282     -1.3849241310     -0.0475559199
H       1.5035785190      0.0172988738      1.4867076779
H       2.5510325028     -0.0766216074      0.0868863551
H       0.9671294340      1.2373712470     -1.2791602239
H       1.2792158798      2.1192492306      0.1994153373
H      -1.1822760818      2.0917974171     -0.4359849924
H      -0.8756791683      1.4510372637      1.1629383838
H      -1.5625726797     -0.1278295945     -1.3681811269
H      -2.4823212312     -0.0403920909      0.1159297395
H      -1.2052706927     -2.2375205204     -0.2229017273
H      -0.9164220204     -1.4529081166      1.3116592096
H       1.2475668582     -2.2215375059      0.4728796666
H       0.9610265427     -1.5294612339     -1.1069527818
18
step 4  E = -15.33333858 Ha  |g|max = 0.000535
C       1.5164331152     -0.0493834546      0.4062106249
C       0.8158324849      1.2296238025     -0.2080010514
C      -0.7344317850      1.2690886794      0.1061932884
C      -1.4786373861     -0.0700817868     -0.2912746634
C      -0.7552536545     -1.3713538624      0.2455606093
C       0.7997760672     -1.3852482821     -0.0474406891
H       1.5030603778      0.0170644595      1.4857469310
H       2.5505612104     -0.0763737086      0.0866674301
H       0.9656652088      1.2378122872     -1.2796166583
H       1.2803921741      2.1180962254      0.2005818244
H      -1.1824227007      2.0923250571     -0.4354204430
H      -0.8754813721      1.4518187133      1.1629628363
H      -1.5599247042     -0.1265249603     -1.3685508840
H      -2.4819574855     -0.0409721476      0.1142326638
H      -1.2055980348     -2.2378422967     -0.2213675618
H      -0.9150659739     -1.4525979049      1.3120566165
H       1.2476855348     -2.2214099156      0.4733333831
H       0.9603100671     -1.5300574083     -1.1075593032
18
step 5  E = -15.33334338 Ha  |g|max = 0.000707
C       1.5155916122     -0.0496605505      0.4049790263
C       0.8154385214      1.2295391714     -0.2076665451
C      -0.7352697440      1.2692494290      0.1069300827
C      -1.4785629660     -0.0701494329     -0.2917816478
C      -0.7545626330     -1.3716693828      0.2463921357
C       0.8004970439     -1.3855368065     -0.0482411726
H       1.5024266358      0.0168999771      1.4846010380
H       2.5493858733     -0.0760894071      0.0865432870
H       0.9639738508      1.2384245509     -1.2793848234
H       1.2812270371      2.1167051910      0.2012869840
H      -1.1826813123      2.0926315153     -0.4346008794
H      -0.8754694293      1.4527604840      1.1630373088
H      -1.5567111950     -0.1252054703     -1.3688247872
H      -2.4817576340     -0.0416095606      0.1118466316
H      -1.2061165067     -2.2380707519     -0.2198004972
H      -0.9137838587     -1.4517917272      1.3129742461
H       1.2477217670     -2.2216107534      0.4738570080
H       0.9595960680     -1.5308329826     -1.1078324361
18
step 6  E = -15.33334860 Ha  |g|max = 0.000492
C       1.5145211352     -0.0499515186      0.4036841985
C       0.8149367784      1.2296604428     -0.2074801175
C      -0.7347303509      1.2695456624      0.1076415102
C      -1.4773192765     -0.0703276527     -0.2918868743
C      -0.7538102755     -1.3717384941      0.2471191247
C       0.8006619325     -1.3867614394     -0.0487933928
H       1.5014734314      0.0166459033      1.4830656513
H       2.5482871092     -0.0757006248      0.0860386328
H       0.9619932620      1.2393462586     -1.2785157659
H       1.2818562522      2.1154737069      0.2017771012
H      -1.1832714695      2.0928598530     -0.4336242659
H      -0.8759663595      1.4538724577      1.1641056062
H      -1.5527390341     -0.1240401812     -1.3697623489
H      -2.4828503977     -0.0424245845      0.1087521231
H      -1.2066671480     -2.2381976669     -0.2178475364
H      -0.9123710295     -1.4503483629      1.3146281228
H       1.2478173477     -2.2218221937      0.4740704464
H       0.9591212051     -1.5321080779     -1.1086572481
18
step 7  E = -15.33335500 Ha  |g|max = 0.000581
C       1.5138817882     -0.0509556620      0.4028160781
C       0.8144188434      1.2296659969     -0.2069557179
C      -0.7348549871      1.2705604354      0.1098652598
C      -1.4761309493     -0.0699629605     -0.2920565955
C      -0.7542174596     -1.3716696547      0.2488395831
C       0.7996016629     -1.3879351928     -0.0496277999
H       1.4999756569      0.0161664822      1.4815985447
H       2.5479675198     -0.0752247680      0.0845954019
H       0.9601457776      1.2407437903     -1.2785375964
H       1.2824655105      2.1155499106      0.2022737074
H      -1.1839175729      2.0924921319     -0.4324512808
H      -0.8768052532      1.4546540027      1.1655735939
H      -1.5476921200     -0.1235414445     -1.3705608078
H      -2.4837332669     -0.0434262277      0.1041632353
H      -1.2071758605     -2.2381249142     -0.2151994458
H      -0.9105800151     -1.4479510515      1.3158742241
H       1.2485297904     -2.2227384979      0.4739576221
H       0.9590640219     -1.5343188942     -1.1098530284
18
step 8  E = -15.33336043 Ha  |g|max = 0.000434
C       1.5138183234     -0.0517529226      0.4013609264
C       0.8142780934      1.2302259909     -0.2064287018
C      -0.7355933026      1.2706140486      0.1113267077
C      -1.4756340481     -0.0693985339     -0.2923041573
C      -0.7546290255     -1.3709937560      0.2493812841
C       0.7994523312     -1.3892163786     -0.0502788959
H       1.4986831252      0.0154909412      1.4811285332
H       2.5477132734     -0.0750221516      0.0831788882
H       0.9586954027      1.2420024826     -1.2786704573
H       1.2827651069      2.1158405356      0.2025355990
H      -1.1845033942      2.0922763346     -0.4314301630
H      -0.8776591779      1.4551563125      1.1676704800
H      -1.5429599035     -0.1235007926     -1.3707075800
H      -2.4839609716     -0.0441422436      0.0996902436
H      -1.2079783306     -2.2382378898     -0.2126433601
H      -0.9092280131     -1.4456925249      1.3175827117
H       1.2488616903     -2.2232330917      0.4732362326
H       0.9588218835     -1.5364328848     -1.1103133029
18
step 9  E = -15.33336384 Ha  |g|max = 0.000558
C       1.5137408689     -0.0515777599      0.4010773265
C       0.8137483023      1.2304909981     -0.2067087295
C      -0.7358242296      1.2704646279      0.1123546278
C      -1.4750655879     -0.0695408086     -0.2929513649
C      -0.7541242026     -1.3704383102      0.2499379164
C       0.7997558173     -1.3892238435     -0.0508443545
H       1.4982374863      0.0145774555      1.4804765324
H       2.5478233681     -0.0752626043      0.0821860825
H       0.9578847456      1.2428636314     -1.2782863054
H       1.2827663242      2.1162692307      0.2026947769
H      -1.1849512946      2.0923929745     -0.4307029294
H      -0.8782322357      1.4550081335      1.1689664080
H      -1.5397463943     -0.1237347734     -1.3706999610
H      -2.4844940255     -0.0442609524      0.0968799656
H      -1.2091028774     -2.2384413115     -0.2107938783
H      -0.9085856080     -1.4440570599      1.3183435487
H       1.2487866180     -2.2236250329      0.4725009900
H       0.9583259701     -1.5379211237     -1.1101156559
18
step 10  E = -15.33336791 Ha  |g|max = 0.000369
C       1.5140187507     -0.0509942014      0.4001859820
C       0.8131538421      1.2310920210     -0.2060611064
C      -0.7362567374      1.2706804428      0.1133432926
C      -1.4742877547     -0.0698890239     -0.2930735769
C      -0.7534931728     -1.3705898034      0.2506693861
C       0.8000836630     -1.3887217509     -0.0507841617
H       1.4981415588      0.0131542948      1.4797980388
H       2.5477929614     -0.0757421464      0.0811529446
H       0.9569980739      1.2439261900     -1.2781854808
H       1.2822771335      2.1165469446      0.2026428334
H      -1.1854218002      2.0924195529     -0.4293691983
H      -0.8788431139      1.4542073899      1.1701446943
H      -1.5356179137     -0.1242493373     -1.3716088727
H      -2.4852201407     -0.0441979102      0.0933205721
H      -1.2105493910     -2.2381538854     -0.2079510869
H      -0.9078396586     -1.4417611837      1.3188812320
H       1.2484808637     -2.2240266337      0.4714624866
H       0.9575258576     -1.5397174939     -1.1102529717
18
step 11  E = -15.33337252 Ha  |g|max = 0.000819
C       1.5144596571     -0.0510707389      0.3993293463
C       0.8129945303      1.2317869499     -0.2056281516
C      -0.7369051386      1.2702590602      0.1142802862
C      -1.4735028670     -0.0699456034     -0.2941677732
C      -0.7541910180     -1.3700816058      0.2520463922
C       0.7993158983     -1.3895319332     -0.0515719414
H       1.4996807758      0.0115575393      1.4791066383
H       2.5479574545     -0.0760153343      0.0803258360
H       0.9558829857      1.2450369717     -1.2775460148
H       1.2810842469      2.1174196217      0.2028329285
H      -1.1862251724      2.0928284058     -0.4271276286
H      -0.8792305850      1.4519365850      1.1702379869
H      -1.5307654588     -0.1251371354     -1.3731394357
H      -2.4854346485     -0.0441048341      0.0892688740
H      -1.2117907884     -2.2376818452     -0.2041606817
H      -0.9069023753     -1.4389923656      1.3198131565
H       1.2483318074     -2.2238221187      0.4710086424
H       0.9561836866     -1.5404581603     -1.1105934369
18
step 12  E = -15.33338091 Ha  |g|max = 0.000620
C       1.5143235944     -0.0522104021      0.3977645953
C       0.8120877975      1.2322181243     -0.2045526861
C      -0.7370168762      1.2693975576      0.1143329344
C      -1.4723761882     -0.0701230927     -0.2970763788
C      -0.7546980453     -1.3683261282      0.2539891308
C       0.7976229452     -1.3897786461     -0.0522572370
H       1.5030306276      0.0088230146      1.4778026765
H       2.5486183857     -0.0764042747      0.0786220093
H       0.9539282670      1.2470279930     -1.2766107103
H       1.2790156876      2.1195454536      0.2035867033
H      -1.1878130752      2.0936428920     -0.4227651128
H      -0.8800196412      1.4474707237      1.1714981184
H      -1.5220304879     -0.1267650798     -1.3757599999
H      -2.4857696627     -0.0439626943      0.0817847401
H      -1.2143888028     -2.2376024526     -0.1974726360
H      -0.9053497613     -1.4338953404      1.3227744663
H       1.2482438458     -2.2236621317      0.4706328557
H       0.9535343223     -1.5414120701     -1.1119784145
18
step 13  E = -15.33338666 Ha  |g|max = 0.000609
C       1.5148369966     -0.0525359259      0.3969554504
C       0.8124191646      1.2322993682     -0.2037789244
C      -0.7374163186      1.2690426972      0.1152008378
C      -1.4715038808     -0.0700605325     -0.2997192587
C      -0.7548593877     -1.3677877617      0.2559960004
C       0.7980605223     -1.3894021470     -0.0526532631
H       1.5056238986      0.0071495899      1.4766146552
H       2.5479614795     -0.0767980597      0.0766492182
H       0.9528682193      1.2483210627     -1.2762661828
H       1.2773677597      2.1202000162      0.2046300889
H      -1.1890276552      2.0946203164     -0.4198051156
H      -0.8804453017      1.4433718785      1.1728779399
H      -1.5162489247     -0.1280049543     -1.3786062669
H      -2.4864451448     -0.0438830705      0.0755992497
H      -1.2164907017     -2.2382770585     -0.1927171520
H      -0.9043414942     -1.4294265676      1.3258145803
H       1.2476696925     -2.2233843527      0.4703674561
H       0.9509139622     -1.5414610630     -1.1128442339
18
step 14  E = -15.33339287 Ha  |g|max = 0.000727
C       1.5156363758     -0.0518139135      0.3962021572
C       0.8114798751      1.2326483249     -0.2036626071
C      -0.7375185204      1.2687105518      0.1161774061
C      -1.4704176507     -0.0709312180     -0.3018948568
C      -0.7547315992     -1.3674454207      0.2582428804
C       0.7968847100     -1.3895224502     -0.0529644563
H       1.5082595662      0.0059744887      1.4760508278
H       2.5476131394     -0.0772906084      0.0733287458
H       0.9523961165      1.2494208389     -1.2757014759
H       1.2762456827      2.1201034279      0.2064390576
H      -1.1898458286      2.0956361028     -0.4165838263
H      -0.8807817170      1.4384625919      1.1749104796
H      -1.5108924285     -0.1291909457     -1.3823116289
H      -2.4872602636     -0.0438555855      0.0680336054
H      -1.2179858403     -2.2388398798     -0.1872355278
H      -0.9032807388     -1.4239515349      1.3285655946
H       1.2472129845     -2.2233016859      0.4700084118
H       0.9479289710     -1.5408296613     -1.1132896797
18
step 15  E = -15.33340133 Ha  |g|max = 0.000738
C       1.5153541701     -0.0519124894      0.3946826772
C       0.8104742460      1.2336191549     -0.2028261068
C      -0.7387095602      1.2673212889      0.1175932136
C      -1.4687254474     -0.0719681448     -0.3062686884
C      -0.7555760967     -1.3665307160      0.2612765355
C       0.7955862489     -1.3889861379     -0.0523879059
H       1.5119258162      0.0050815332      1.4755802267
H       2.5477407040     -0.0778342580      0.0677626779
H       0.9521675121      1.2508759075     -1.2752236457
H       1.2750495662      2.1193601276      0.2091333370
H      -1.1905730695      2.0967807966     -0.4117305888
H      -0.8809964061      1.4314262371      1.1776444175
H      -1.5036553512     -0.1307516148     -1.3861338605
H      -2.4884415038     -0.0440430445      0.0569606452
H      -1.2193658386     -2.2395560243     -0.1790120684
H      -0.9017401051     -1.4159617137      1.3319033281
H       1.2467135102     -2.2232880515      0.4691468818
H       0.9437143645     -1.5396494469     -1.1137859283
18
step 16  E = -15.33341019 Ha  |g|max = 0.000845
C       1.5161212555     -0.0525469650      0.3937181552
C       0.8097153998      1.2332388165     -0.2018569453
C      -0.7400114747      1.2653347353      0.1187046101
C      -1.4686237726     -0.0722012073     -0.3100014693
C      -0.7566149790     -1.3642012012      0.2633347393
C       0.7943950483     -1.3887387660     -0.0520172337
H       1.5152817853      0.0051715219      1.4740146777
H       2.5463077684     -0.0780804519      0.0625074395
H       0.9521465301      1.2524498375     -1.2744180543
H       1.2747319311      2.1190659460      0.2119723518
H      -1.1911017519      2.0973194386     -0.4066745886
H      -0.8810851877      1.4249157827      1.1794663682
H      -1.4968597089     -0.1322006279     -1.3891486865
H      -2.4889862918     -0.0446607882      0.0463343130
H      -1.2201702203     -2.2408450533     -0.1710535359
H      -0.9006581655     -1.4084425165      1.3348194632
H       1.2464735110     -2.2232874154      0.4678917015
H       0.9398810136     -1.5383076992     -1.1132781202
18
step 17  E = -15.33341660 Ha  |g|max = 0.000482
C       1.5161601481     -0.0528409866      0.3925573383
C       0.8098472849      1.2326764324     -0.2006578323
C      -0.7393998929      1.2641866753      0.1193075684
C      -1.4681479667     -0.0722360062     -0.3122384879
C      -0.7570437838     -1.3629660598      0.2649183441
C       0.7930118098     -1.3884345261     -0.0513866554
H       1.5179882126      0.0061085630      1.4724930975
H       2.5448749117     -0.0781348246      0.0585838022
H       0.9521232145      1.2538527351     -1.2729215618
H       1.2744456476      2.1180669330      0.2138113230
H      -1.1917213724      2.0974159019     -0.4026016571
H      -0.8812934098      1.4202197167      1.1801889029
H      -1.4917051222     -0.1331748875     -1.3922257060
H      -2.4914253520     -0.0455033784      0.0393206118
H      -1.2201824081     -2.2416426464     -0.1647845292
H      -0.9004416044     -1.4026086201      1.3361829826
H       1.2463423851     -2.2236608616      0.4666511873
H       0.9375099377     -1.5373407868     -1.1128835147
18
step 18  E = -15.33341795 Ha  |g|max = 0.000281
C       1.5159681171     -0.0529930092      0.3924045054
C       0.8099383185      1.2329549645     -0.2006260198
C      -0.7393326802      1.2640056403      0.1195350311
C      -1.4685827895     -0.0725346411     -0.3131425828
C      -0.7572196150     -1.3628045940      0.2653882755
C       0.7930462602     -1.3885751940     -0.0513815769
H       1.5187965901      0.0065887715      1.4722224321
H       2.5448135729     -0.0782096768      0.0575466576
H       0.9521651176      1.2542622278     -1.2724117376
H       1.2744652965      2.1176408187      0.2143065404
H      -1.1918713238      2.0974588805     -0.4016749125
H      -0.8813262742      1.4192037623      1.1803720983
H      -1.4903744628     -0.1332855619     -1.3927544573
H      -2.4919719190     -0.0457489731      0.0378335900
H      -1.2201615113     -2.2419146174     -0.1633322476
H      -0.9006751497     -1.4011089576      1.3365737899
H       1.2461776482     -2.2238089835      0.4662840053
H       0.9370874317     -1.5371474870     -1.1128281707
18
step 19  E = -15.33341960 Ha  |g|max = 0.000257
C       1.5163311067     -0.0529186045      0.3919982249
C       0.8095871066      1.2330929313     -0.2004294169
C      -0.7399400172      1.2633742520      0.1194908528
C      -1.4690326343     -0.0729718884     -0.3138474508
C      -0.7574120321     -1.3626198794      0.2656964372
C       0.7929274266     -1.3887858406     -0.0514609669
H       1.5200601227      0.0075732125      1.4722075781
H       2.5447458832     -0.0784443589      0.0563121590
H       0.9524252507      1.2549962292     -1.2722619548
H       1.2749485781      2.1173412063      0.2152706737
H      -1.1920889060      2.0976826480     -0.4006962594
H      -0.8813165677      1.4181770437      1.1808720395
H      -1.4887099647     -0.1332634447     -1.3936422278
H      -2.4926742938     -0.0461258368      0.0362979036
H      -1.2202163346     -2.2425981779     -0.1616820500
H      -0.9015071832     -1.3990731889      1.3373832317
H       1.2459094242     -2.2244069227      0.4658979492
H       0.9369056473     -1.5370460144     -1.1130914943
18
step 20  E = -15.33342009 Ha  |g|max = 0.000136
C       1.5164072227     -0.0529068292      0.3920518089
C       0.8095143473      1.2330199563     -0.2003557807
C      -0.7401862135      1.2632729533      0.1197488100
C      -1.4689113594     -0.0730569203     -0.3140626552
C      -0.7575556013     -1.3626626498      0.2660017519
C       0.7928431010     -1.3886914373     -0.0514040033
H       1.5205643917      0.0079230343      1.4720043677
H       2.5448210789     -0.0785313313      0.0559069117
H       0.9525360823      1.2553388900     -1.2723193803
H       1.2750550862      2.1172267470      0.2156381914
H      -1.1922307264      2.0977647260     -0.4004892056
H      -0.8813182693      1.4178645932      1.1808644091
H      -1.4883016043     -0.1332412583     -1.3939237325
H      -2.4929209756     -0.0463049398      0.0358674107
H      -1.2202625432     -2.2428647514     -0.1611908832
H      -0.9018331920     -1.3984105919      1.3374043945
H       1.2457888295     -2.2246849556      0.4657856671
H       0.9369329533     -1.5370718706     -1.1132128508
18
step 21  E = -15.33342057 Ha  |g|max = 0.000211
C       1.5166146403     -0.0529792050      0.3918878598
C       0.8095364695      1.2330300967     -0.2002774040
C      -0.7400951414      1.2635152764      0.1198130290
C      -1.4688250627     -0.0731141730     -0.3141355899
C      -0.7577249938     -1.3628163666      0.2660471945
C       0.7927331369     -1.3887234673     -0.0511314033
H       1.5213688582      0.0083597096      1.4717280202
H       2.5448933679     -0.0786371008      0.0554924279
H       0.9526352160      1.2559362955     -1.2723206345
H       1.2748828175      2.1168531067      0.2160994155
H      -1.1925205196      2.0976983628     -0.4003482024
H      -0.8814632429      1.4176004220      1.1810310099
H      -1.4880792949     -0.1331931464     -1.3941253907
H      -2.4928026507     -0.0466612020      0.0352973345
H      -1.2203626770     -2.2431699656     -0.1606162020
H      -0.9023475250     -1.3976972627      1.3373785903
H       1.2454676185     -2.2249015742      0.4655636131
H       0.9370315854     -1.5371164434     -1.1130684335
18
step 22  E = -15.33342089 Ha  |g|max = 0.000091
C       1.5167153789     -0.0530102106      0.3916710732
C       0.8095740137      1.2329778054     -0.2003719100
C      -0.7400637723      1.2634097561      0.1198320606
C      -1.4686102472     -0.0730604171     -0.3143425033
C      -0.7577673333     -1.3627323227      0.2660102340
C       0.7926365119     -1.3887979682     -0.0511188530
H       1.5220019540      0.0086455080      1.4715972742
H       2.5449656512     -0.0787262451      0.0551641618
H       0.9526825420      1.2564180709     -1.2722037823
H       1.2747606016      2.1166781263      0.2165104128
H      -1.1927632380      2.0976855209     -0.4003201938
H      -0.8815865408      1.4174967260      1.1811630018
H      -1.4879938822     -0.1331455085     -1.3941231794
H      -2.4927085105     -0.0469203789      0.0349529946
H      -1.2204954038     -2.2434367068     -0.1602712101
H      -0.9027274150     -1.3972755101      1.3374013639
H       1.2452541684     -2.2250978603      0.4655028709
H       0.9370681198     -1.5371250237     -1.1127385792
