18
cyclohexane optimised (CG)  E = -15.33331577 Ha  |g|max = 0.000754
C       1.5168167536     -0.0485595637      0.4064050535
C       0.8171704006      1.2309448355     -0.2071298586
C      -0.7336100086      1.2668820429      0.1055116257
C      -1.4806103967     -0.0715179904     -0.2903963392
C      -0.7551381170     -1.3717282365      0.2457215912
C       0.8002335076     -1.3851803628     -0.0476406283
H       1.5046227131      0.0177971060      1.4861590171
H       2.5512988999     -0.0774874295      0.0878347105
H       0.9702680020      1.2367333804     -1.2770896889
H       1.2787295901      2.1230219135      0.1969056070
H      -1.1805016842      2.0899994593     -0.4353706649
H      -0.8755912369      1.4504102060      1.1616699934
H      -1.5668086400     -0.1295209220     -1.3669798040
H      -2.4824458792     -0.0385241757      0.1173564004
H      -1.2044434531     -2.2354373773     -0.2254917592
H      -0.9192758017     -1.4524995493      1.3118313681
H       1.2473508904     -2.2227093791      0.4724444932
H       0.9628776271     -1.5286404525     -1.1074261748
