4
step 0  E = -4.14621726 Ha
C       0.0136339772      0.0412660444      0.6144312507
C      -0.0615126292      0.0450826561     -0.5755906683
H       0.0803488834      0.0378776694      1.6709286286
H      -0.1282275354      0.0484710311     -1.6320880462
4
step 1  E = -4.14621780 Ha  |g|max = 0.000301
C       0.0136379811      0.0412658411      0.6144948047
C      -0.0615166331      0.0450828594     -0.5756542223
H       0.0803888273      0.0378756407      1.6715617244
H      -0.1282674793      0.0484730598     -1.6327211420
4
step 2  E = -4.14621784 Ha  |g|max = 0.000005
C       0.0136425518      0.0412656089      0.6145672233
C      -0.0615212038      0.0450830916     -0.5757266409
H       0.0803912659      0.0378755168      1.6716004684
H      -0.1282699178      0.0484731836     -1.6327598860
