4
step 0  E = -4.12621759 Ha
C       0.0172792096      0.0410809072      0.6721568538
C      -0.0651578616      0.0452677933     -0.6333162714
H       0.0841449422      0.0376848718      1.7310423248
H      -0.1320235942      0.0486638287     -1.6922017424
4
step 1  E = -4.14207420 Ha  |g|max = 0.034625
C       0.0143061758      0.0412319042      0.6250758938
C      -0.0621848278      0.0451167963     -0.5862353114
H       0.0841335591      0.0376854499      1.7308621664
H      -0.1320122111      0.0486632506     -1.6920215840
4
step 2  E = -4.14619561 Ha  |g|max = 0.007356
C       0.0135392794      0.0412708540      0.6129315882
C      -0.0614179314      0.0450778465     -0.5740910058
H       0.0803757665      0.0378763040      1.6713542711
H      -0.1282544185      0.0484723965     -1.6325136887
4
step 3  E = -4.14621726 Ha  |g|max = 0.000449
C       0.0136339772      0.0412660444      0.6144312507
C      -0.0615126292      0.0450826561     -0.5755906683
H       0.0803488834      0.0378776694      1.6709286286
H      -0.1282275354      0.0484710311     -1.6320880462
