14
step 0  E = -11.00170486 Ha
C      -0.0595711260     -0.0033810980      0.4357025095
C       1.2549099213      0.0035060272     -0.4419892023
C       2.5610990025      0.0744804842      0.4493559265
C       3.8653180327      0.3019831930     -0.4134300610
H      -0.3605261445      1.0105274848      0.6551969180
H       0.1067402172     -0.5239067859      1.3673372183
H      -0.8608173835     -0.4938552036     -0.0991633629
H       1.2307904042      0.8605359210     -1.1003812845
H       1.2847191408     -0.8853195628     -1.0576234005
H       2.6652857385     -0.8473859569      1.0061540847
H       2.4598217519      0.8805426831      1.1624435331
H       4.2380010023     -0.6474177652     -0.7730585862
H       4.6319275182      0.7717410146      0.1877632769
H       3.6573282889      0.9381090792     -1.2615829386
14
step 1  E = -11.00171196 Ha  |g|max = 0.000826
C      -0.0597413253     -0.0039328064      0.4349241858
C       1.2553189844      0.0039274067     -0.4419083537
C       2.5612526957      0.0740665605      0.4497479323
C       3.8660900019      0.3014631981     -0.4134951031
H      -0.3607468028      1.0115089881      0.6556464737
H       0.1065132234     -0.5248306686      1.3680765266
H      -0.8611701234     -0.4940193808     -0.0995321343
H       1.2303086571      0.8607554014     -1.1011015847
H       1.2847439889     -0.8855840490     -1.0569145737
H       2.6650176161     -0.8470590051      1.0060835580
H       2.4601713141      0.8812325873      1.1625326937
H       4.2382312871     -0.6470424502     -0.7734532001
H       4.6319458421      0.7711587152      0.1883273233
H       3.6570910064      0.9385150177     -1.2622091190
14
step 2  E = -11.00172157 Ha  |g|max = 0.000708
C      -0.0602353673     -0.0037017684      0.4357275335
C       1.2560001392      0.0047237925     -0.4422437084
C       2.5622412724      0.0751171990      0.4501088018
C       3.8664046768      0.3018261410     -0.4142302880
H      -0.3608485384      1.0120679533      0.6564360911
H       0.1054505755     -0.5267559310      1.3683187585
H      -0.8624311975     -0.4946713449     -0.1010177585
H       1.2290427396      0.8610315734     -1.1029568727
H       1.2849910494     -0.8860957957     -1.0546785945
H       2.6642460714     -0.8471579444      1.0066305292
H       2.4614531672      0.8826004422      1.1623066353
H       4.2394815373     -0.6470300341     -0.7750918500
H       4.6323609786      0.7694421602      0.1900896066
H       3.6568692649      0.9387630725     -1.2626742789
14
step 3  E = -11.00173389 Ha  |g|max = 0.001104
C      -0.0618361338     -0.0041961377      0.4359100175
C       1.2548991312      0.0068875632     -0.4406788318
C       2.5629623779      0.0765698272      0.4493646011
C       3.8676148385      0.3016719621     -0.4147121811
H      -0.3608409286      1.0111159444      0.6578949614
H       0.1030969690     -0.5292349557      1.3668679153
H      -0.8620379374     -0.4938398110     -0.1020210442
H       1.2270642260      0.8603237240     -1.1056429573
H       1.2858053443     -0.8873168791     -1.0509593782
H       2.6629583872     -0.8462046659      1.0073044649
H       2.4642159838      0.8850402769      1.1618373848
H       4.2412164836     -0.6461916060     -0.7779303545
H       4.6328127916      0.7662443747      0.1921512439
H       3.6570948431      0.9392899003     -1.2626612775
14
step 4  E = -11.00174516 Ha  |g|max = 0.000819
C      -0.0620180951     -0.0041720651      0.4359323864
C       1.2537428392      0.0068742736     -0.4402903931
C       2.5626643301      0.0777276652      0.4495782289
C       3.8683257299      0.3007007442     -0.4153639095
H      -0.3613873611      1.0098345748      0.6597649647
H       0.1006088920     -0.5316286646      1.3651743963
H      -0.8618614437     -0.4927165096     -0.1033152379
H       1.2250955507      0.8588933630     -1.1075053177
H       1.2865529082     -0.8870821817     -1.0464216837
H       2.6617119352     -0.8437169526      1.0072187300
H       2.4674251134      0.8869405694      1.1607850467
H       4.2424346992     -0.6450916530     -0.7805861984
H       4.6335859755      0.7634946729      0.1936280687
H       3.6581453110      0.9401016840     -1.2618745612
14
step 5  E = -11.00175486 Ha  |g|max = 0.000700
C      -0.0620089339     -0.0043952721      0.4354799758
C       1.2541211353      0.0077303070     -0.4393666049
C       2.5620905604      0.0793770538      0.4483163323
C       3.8679146448      0.3002936690     -0.4148408538
H      -0.3625688818      1.0091188206      0.6622694505
H       0.0982940974     -0.5343769847      1.3639316488
H      -0.8621066993     -0.4912386021     -0.1051249595
H       1.2230978873      0.8564678914     -1.1084367713
H       1.2871307763     -0.8880354969     -1.0427989101
H       2.6606089713     -0.8411145001      1.0074346684
H       2.4707593781      0.8889628394      1.1595665020
H       4.2432390727     -0.6449931525     -0.7834089709
H       4.6343419557      0.7609163749      0.1941311152
H       3.6601124295      0.9414465772     -1.2604281529
14
step 6  E = -11.00176917 Ha  |g|max = 0.001088
C      -0.0638679125     -0.0043478982      0.4361791862
C       1.2543929165      0.0072079772     -0.4379659766
C       2.5636421600      0.0826376403      0.4482847293
C       3.8691601943      0.2988875004     -0.4158016103
H      -0.3647264940      1.0082259367      0.6667265574
H       0.0956458307     -0.5389146792      1.3624951072
H      -0.8628652071     -0.4882994495     -0.1091764226
H       1.2205217266      0.8539609846     -1.1100475245
H       1.2877856666     -0.8918380257     -1.0397448739
H       2.6592124426     -0.8375968760      1.0084095710
H       2.4747692814      0.8925642405      1.1573049647
H       4.2416544366     -0.6449079683     -0.7863448983
H       4.6352515565      0.7576409438      0.1937241143
H       3.6644498109      0.9449392083     -1.2573185412
14
step 7  E = -11.00177962 Ha  |g|max = 0.001031
C      -0.0647849164     -0.0048933530      0.4366394285
C       1.2535060226      0.0057699684     -0.4376302676
C       2.5647489719      0.0834314309      0.4478411886
C       3.8702331732      0.2992497202     -0.4162053452
H      -0.3662830197      1.0076105809      0.6704698287
H       0.0934623816     -0.5425302683      1.3612278680
H      -0.8635075539     -0.4856218503     -0.1124919858
H       1.2188443219      0.8519904627     -1.1112272491
H       1.2882472588     -0.8940868143     -1.0369833700
H       2.6586383111     -0.8347701500      1.0096633909
H       2.4773087734      0.8968489905      1.1562184659
H       4.2398545448     -0.6463303404     -0.7888142037
H       4.6368016339      0.7550854526      0.1936080247
H       3.6679565189      0.9484057150     -1.2555914654
14
step 8  E = -11.00179323 Ha  |g|max = 0.000847
C      -0.0658221885     -0.0056371520      0.4365367838
C       1.2525812306      0.0048996749     -0.4371173112
C       2.5638722262      0.0862379094      0.4474806652
C       3.8715909783      0.2989775399     -0.4172570267
H      -0.3672367333      1.0058811668      0.6752206298
H       0.0903264006     -0.5475030887      1.3594930529
H      -0.8642866860     -0.4817269349     -0.1163197676
H       1.2172052034      0.8486281513     -1.1122673194
H       1.2884939957     -0.8966849873     -1.0335110408
H       2.6592662545     -0.8322397418      1.0127014681
H       2.4795494594      0.9018431549      1.1537600356
H       4.2364419902     -0.6481724864     -0.7917823005
H       4.6408541863      0.7518889643      0.1946075477
H       3.6721901229      0.9537673894     -1.2548212116
14
step 9  E = -11.00181340 Ha  |g|max = 0.001698
C      -0.0673275937     -0.0066516229      0.4368825539
C       1.2523957700      0.0046762018     -0.4344157699
C       2.5645537477      0.0891044701      0.4488393534
C       3.8725369463      0.3008996136     -0.4179670678
H      -0.3659369519      1.0018934923      0.6814701461
H       0.0850361127     -0.5550687330      1.3555850855
H      -0.8662086444     -0.4762410423     -0.1210407242
H       1.2154707306      0.8442803909     -1.1147425124
H       1.2882178628     -0.9001812758     -1.0290108857
H       2.6616852220     -0.8254626421      1.0166831530
H       2.4799026213      0.9078742824      1.1483191035
H       4.2297430930     -0.6491295034     -0.7957590907
H       4.6467044366      0.7444623805      0.1955337482
H       3.6782531153      0.9597035733     -1.2536530502
14
step 10  E = -11.00185312 Ha  |g|max = 0.001510
C      -0.0696504043     -0.0112021850      0.4361823419
C       1.2528602288      0.0011201098     -0.4308788001
C       2.5679198990      0.0967133496      0.4472584432
C       3.8740875753      0.3027322818     -0.4180735402
H      -0.3625397792      0.9967857492      0.6946117011
H       0.0741061220     -0.5714949924      1.3480762261
H      -0.8704527901     -0.4653446302     -0.1300661684
H       1.2125792397      0.8361916170     -1.1196259022
H       1.2874987935     -0.9048220960     -1.0184653064
H       2.6677754127     -0.8121929561      1.0261118460
H       2.4785467614      0.9215753583      1.1391644961
H       4.2148996986     -0.6480057962     -0.8034165307
H       4.6575023521      0.7275427937      0.1965399641
H       3.6898934171      0.9705610376     -1.2506950650
14
step 11  E = -11.00188297 Ha  |g|max = 0.001189
C      -0.0706235821     -0.0132884545      0.4358365939
C       1.2532986725      0.0000111396     -0.4305869345
C       2.5683192726      0.1035898155      0.4470121767
C       3.8763382059      0.3045923269     -0.4202453839
H      -0.3586985157      0.9935510015      0.7051287077
H       0.0654143710     -0.5864374034      1.3429366079
H      -0.8745641941     -0.4573178922     -0.1377654034
H       1.2105946797      0.8286236994     -1.1218204021
H       1.2876958018     -0.9101108725     -1.0109346247
H       2.6734384389     -0.8005528531      1.0336683494
H       2.4765353890      0.9337236902      1.1330309179
H       4.2032442669     -0.6471960806     -0.8105421152
H       4.6653075079      0.7130424820      0.1972177002
H       3.6987262604      0.9779290901     -1.2462127633
14
step 12  E = -11.00194553 Ha  |g|max = 0.001781
C      -0.0738180615     -0.0172547775      0.4362398707
C       1.2526666827     -0.0063911374     -0.4270513208
C       2.5676567111      0.1206627514      0.4487779419
C       3.8776274703      0.3051036070     -0.4201772825
H      -0.3479833526      0.9881436032      0.7262958052
H       0.0486716988     -0.6180744323      1.3303858633
H      -0.8804442835     -0.4400085483     -0.1520804456
H       1.2069566867      0.8173968298     -1.1280095224
H       1.2910859788     -0.9249853853     -0.9992070107
H       2.6851012353     -0.7732428456      1.0475271507
H       2.4709681173      0.9602506823      1.1223619775
H       4.1820664038     -0.6494101376     -0.8297161661
H       4.6801202300      0.6830629992      0.1989086181
H       3.7143511591      0.9949065871     -1.2375326386
14
step 13  E = -11.00197290 Ha  |g|max = 0.001555
C      -0.0756238999     -0.0210396789      0.4372442650
C       1.2523110901     -0.0099509700     -0.4267770922
C       2.5679741252      0.1272466044      0.4495956072
C       3.8772162336      0.3035576490     -0.4216709628
H      -0.3426877980      0.9856032564      0.7350573447
H       0.0421511628     -0.6296333720      1.3229438482
H      -0.8815062475     -0.4315120103     -0.1569165235
H       1.2052861606      0.8120347077     -1.1298991933
H       1.2937978269     -0.9301194157     -0.9940579085
H       2.6887674662     -0.7612471822      1.0536070230
H       2.4684800241      0.9719524020      1.1182370119
H       4.1729961476     -0.6495420329     -0.8378253339
H       4.6856889758      0.6708208563      0.2000247918
H       3.7201754512      1.0019890300     -1.2328402835
14
step 14  E = -11.00203633 Ha  |g|max = 0.002433
C      -0.0750032538     -0.0249268512      0.4351683731
C       1.2520677459     -0.0170645754     -0.4229239130
C       2.5667494771      0.1421907919      0.4495160978
C       3.8781937716      0.3022483698     -0.4243675035
H      -0.3273672675      0.9745481996      0.7544560917
H       0.0296184777     -0.6554670584      1.3061258180
H      -0.8844660075     -0.4103107174     -0.1668446379
H       1.2002073512      0.7967862784     -1.1323276510
H       1.3044154383     -0.9407420378     -0.9831515944
H       2.6926274143     -0.7345235975      1.0708681735
H       2.4633862634      0.9985401033      1.1068733690
H       4.1514328634     -0.6502007673     -0.8578186231
H       4.6921399109      0.6412482702      0.2003602901
H       3.7310246291      1.0178335541     -1.2192122695
14
step 15  E = -11.00213891 Ha  |g|max = 0.003196
C      -0.0713221244     -0.0349137842      0.4324212076
C       1.2576962870     -0.0270436866     -0.4181829274
C       2.5666175028      0.1648670132      0.4539698020
C       3.8726741264      0.2985179636     -0.4263675475
H      -0.3030737912      0.9617170639      0.7859424313
H       0.0126773365     -0.6955383690      1.2822931956
H      -0.8927620957     -0.3776977604     -0.1846924733
H       1.1913786389      0.7740500385     -1.1379268103
H       1.3228173611     -0.9571227434     -0.9664684716
H       2.6944189300     -0.6931202610      1.0989940462
H       2.4572899248      1.0360354469      1.0835971777
H       4.1172490603     -0.6506716473     -0.8892583514
H       4.7031496559      0.5965371722      0.2028434295
H       3.7462161474      1.0445437024     -1.2004435758
14
step 16  E = -11.00222070 Ha  |g|max = 0.003866
C      -0.0727513133     -0.0429726003      0.4311845742
C       1.2644877555     -0.0366008338     -0.4153644405
C       2.5657453385      0.1799149299      0.4577833074
C       3.8708720871      0.2976798372     -0.4287755256
H      -0.2797062861      0.9490580476      0.8139830435
H      -0.0009924531     -0.7323276616      1.2625421136
H      -0.8988564484     -0.3477669536     -0.2005307670
H       1.1840245815      0.7558917420     -1.1457739819
H       1.3406311148     -0.9719569988     -0.9511213535
H       2.6937692210     -0.6566766863      1.1260104990
H       2.4530491296      1.0715522593      1.0618158357
H       4.0843579591     -0.6483654384     -0.9162516710
H       4.7113702522      0.5556600393      0.2040929626
H       3.7590261516      1.0670706345     -1.1828742621
14
step 17  E = -11.00231146 Ha  |g|max = 0.002237
C      -0.0733519377     -0.0499713499      0.4316720203
C       1.2630962984     -0.0428185791     -0.4140656950
C       2.5661938595      0.1935576531      0.4592640626
C       3.8714034464      0.2975380677     -0.4306193676
H      -0.2595918751      0.9363161312      0.8363343326
H      -0.0117612610     -0.7609923351      1.2455494303
H      -0.9015835686     -0.3227787120     -0.2121746469
H       1.1806197378      0.7418878209     -1.1539013442
H       1.3562400210     -0.9851621429     -0.9388142041
H       2.6915073052     -0.6304422295      1.1514285069
H       2.4511117026      1.0997056438      1.0417510674
H       4.0553350282     -0.6416165782     -0.9361697109
H       4.7169874138      0.5219581569      0.2037195874
H       3.7688210242      1.0829789041     -1.1672543537
14
step 18  E = -11.00237395 Ha  |g|max = 0.002128
C      -0.0715354668     -0.0549718830      0.4313535447
C       1.2630679615     -0.0460943485     -0.4140561756
C       2.5635234804      0.1984864136      0.4604174148
C       3.8659717003      0.2979489385     -0.4280545645
H      -0.2488389816      0.9271628088      0.8489854073
H      -0.0178921326     -0.7743794195      1.2346347655
H      -0.9003585019     -0.3089169221     -0.2148985603
H       1.1818887902      0.7339398424     -1.1595649736
H       1.3635908523     -0.9906169137     -0.9311240082
H       2.6877132189     -0.6141885124      1.1632762942
H       2.4521831572      1.1127284536      1.0276642780
H       4.0389551156     -0.6355493803     -0.9465939734
H       4.7225877572      0.5045718638      0.2033071118
H       3.7741702973      1.0900395767     -1.1586272235
14
step 19  E = -11.00239664 Ha  |g|max = 0.001340
C      -0.0698244149     -0.0549540138      0.4307171104
C       1.2646995621     -0.0470819144     -0.4141596842
C       2.5608019524      0.2008066052      0.4606107139
C       3.8662488328      0.2979490353     -0.4263852710
H      -0.2449061418      0.9231126365      0.8541512711
H      -0.0199571379     -0.7801734803      1.2311946211
H      -0.9004173650     -0.3042604073     -0.2156244172
H       1.1833087866      0.7305478225     -1.1618230712
H       1.3656476765     -0.9927217830     -0.9284096531
H       2.6853989273     -0.6082963813      1.1675848853
H       2.4525497897      1.1176018726      1.0221481177
H       4.0325048775     -0.6329901661     -0.9504163615
H       4.7232775408      0.4980047904      0.2021531696
H       3.7756943803      1.0926159235     -1.1550222234
14
step 20  E = -11.00242131 Ha  |g|max = 0.001215
C      -0.0667033377     -0.0563160168      0.4300894509
C       1.2673039250     -0.0478093057     -0.4161704418
C       2.5616378056      0.2045177551      0.4605695652
C       3.8656876144      0.2973953876     -0.4265606175
H      -0.2407277249      0.9202380753      0.8626101710
H      -0.0212453838     -0.7870326676      1.2263754338
H      -0.9012059401     -0.2995887265     -0.2158245239
H       1.1875426628      0.7257662962     -1.1652301050
H       1.3664553767     -0.9960647417     -0.9259048322
H       2.6798083573     -0.6017344579      1.1723364577
H       2.4513126889      1.1252256953      1.0164989630
H       4.0247275872     -0.6305980961     -0.9549390963
H       4.7238499137      0.4908410364      0.2015427948
H       3.7765837377      1.0953203243     -1.1486741660
14
step 21  E = -11.00244021 Ha  |g|max = 0.001488
C      -0.0662304590     -0.0564301080      0.4302457032
C       1.2692065516     -0.0498694398     -0.4162040154
C       2.5623107499      0.2077278952      0.4610422901
C       3.8649441048      0.2964552510     -0.4257859401
H      -0.2369070273      0.9169656641      0.8694532604
H      -0.0209289569     -0.7923617222      1.2216276097
H      -0.9007648893     -0.2957158658     -0.2151224801
H       1.1916940342      0.7231676095     -1.1699964412
H       1.3668870597     -0.9991218321     -0.9243818293
H       2.6746016690     -0.5961796809      1.1757547614
H       2.4495681158      1.1316692706      1.0121073867
H       4.0189191876     -0.6305029670     -0.9594356851
H       4.7249126123      0.4852838650      0.2017018456
H       3.7768145419      1.0990726288     -1.1442875362
14
step 22  E = -11.00244989 Ha  |g|max = 0.000793
C      -0.0656117101     -0.0564722331      0.4307746891
C       1.2687873266     -0.0494577154     -0.4166735758
C       2.5606776041      0.2091765679      0.4620159651
C       3.8653659031      0.2959958233     -0.4259410142
H      -0.2347449996      0.9151715005      0.8729197142
H      -0.0197680603     -0.7948778469      1.2187763713
H      -0.9005361152     -0.2936262847     -0.2148381246
H       1.1941026292      0.7210864224     -1.1721495512
H       1.3672893598     -1.0009968876     -0.9236860483
H       2.6722217928     -0.5932111326      1.1776292635
H       2.4482942834      1.1346369943      1.0098357412
H       4.0163420924     -0.6310591248     -0.9618148231
H       4.7258128981      0.4823874505      0.2020840565
H       3.7767942945      1.1014070366     -1.1422137969
14
step 23  E = -11.00245615 Ha  |g|max = 0.000642
C      -0.0649836238     -0.0565152636      0.4303167643
C       1.2678082070     -0.0498499427     -0.4176646184
C       2.5592733599      0.2099341723      0.4612250900
C       3.8647003029      0.2957180166     -0.4259695470
H      -0.2333354540      0.9145603485      0.8753147955
H      -0.0177492318     -0.7967206690      1.2172228007
H      -0.9005667688     -0.2920808650     -0.2146789864
H       1.1953721368      0.7196480292     -1.1735381464
H       1.3676073755     -1.0009850708     -0.9224307189
H       2.6711764850     -0.5916174256      1.1795043263
H       2.4469609390      1.1363111150      1.0087638570
H       4.0152358851     -0.6312064203     -0.9629306183
H       4.7265703439      0.4803555444      0.2023847491
H       3.7769573432      1.1026089980     -1.1408009180
14
step 24  E = -11.00246473 Ha  |g|max = 0.000844
C      -0.0650131295     -0.0563164731      0.4305723300
C       1.2677838656     -0.0498150555     -0.4187130137
C       2.5577675189      0.2100339726      0.4608605845
C       3.8637907253      0.2953180517     -0.4249746665
H      -0.2307715048      0.9134852612      0.8786756938
H      -0.0127023176     -0.7993087389      1.2143888372
H      -0.9014730387     -0.2894134494     -0.2145317396
H       1.1960279069      0.7181484780     -1.1768052111
H       1.3680954404     -1.0014536440     -0.9205726449
H       2.6698719968     -0.5879146025      1.1815461987
H       2.4439508351      1.1374778581      1.0066736499
H       4.0140768124     -0.6302042320     -0.9637185236
H       4.7258914268      0.4765166815      0.2018747789
H       3.7777307598      1.1036064463     -1.1385574990
14
step 25  E = -11.00246803 Ha  |g|max = 0.000373
C      -0.0645090504     -0.0563215020      0.4303258256
C       1.2675206455     -0.0492497372     -0.4189807592
C       2.5576035031      0.2109104559      0.4610378977
C       3.8631431277      0.2952121096     -0.4249901339
H      -0.2297178925      0.9131027020      0.8800661301
H      -0.0105900779     -0.8002884095      1.2132027482
H      -0.9020060017     -0.2882949319     -0.2142110524
H       1.1959623167      0.7175671757     -1.1781551312
H       1.3682398958     -1.0023164686     -0.9202008880
H       2.6693500538     -0.5867780174      1.1824527349
H       2.4425844809      1.1375677234      1.0055936279
H       4.0135961313     -0.6297259796     -0.9639512826
H       4.7256883867      0.4750182344      0.2021089976
H       3.7781617761      1.1037571918     -1.1375799615
14
step 26  E = -11.00247216 Ha  |g|max = 0.000484
C      -0.0631478586     -0.0559204422      0.4296002147
C       1.2682234994     -0.0496647930     -0.4204939988
C       2.5575835239      0.2118265710      0.4608438703
C       3.8632321483      0.2954896526     -0.4246014661
H      -0.2281564716      0.9121185915      0.8818092173
H      -0.0080386769     -0.8012053964      1.2113101210
H      -0.9027533359     -0.2867163341     -0.2122716861
H       1.1945162523      0.7171724378     -1.1799804907
H       1.3679685091     -1.0036223497     -0.9200404588
H       2.6685557440     -0.5862591179      1.1833718122
H       2.4404297788      1.1392737568      1.0049190908
H       4.0124543487     -0.6298215796     -0.9645204410
H       4.7251306560      0.4733729929      0.2038847890
H       3.7790291694      1.1041165382     -1.1371118480
14
step 27  E = -11.00247357 Ha  |g|max = 0.000348
C      -0.0626502117     -0.0560931712      0.4297245831
C       1.2683828083     -0.0496451069     -0.4211900586
C       2.5571641892      0.2119184066      0.4610064428
C       3.8635304988      0.2952352823     -0.4244883651
H      -0.2273962226      0.9118819312      0.8824363314
H      -0.0072003985     -0.8014184565      1.2105409241
H      -0.9030103262     -0.2861649808     -0.2115092423
H       1.1939861634      0.7168268246     -1.1805620895
H       1.3678984406     -1.0040877707     -0.9201596996
H       2.6682039822     -0.5857311042      1.1832007855
H       2.4397404078      1.1398182440      1.0045871519
H       4.0119156179     -0.6296456270     -0.9645128014
H       4.7249694245      0.4728951894      0.2046983761
H       3.7794929092      1.1043708584     -1.1370536223
14
step 28  E = -11.00247800 Ha  |g|max = 0.000623
C      -0.0616968181     -0.0561935893      0.4301763540
C       1.2673126550     -0.0503395171     -0.4222616660
C       2.5553384719      0.2132741165      0.4594582783
C       3.8633838283      0.2954591701     -0.4231256766
H      -0.2237734491      0.9114244335      0.8842362543
H      -0.0050084182     -0.8030357162      1.2096013750
H      -0.9034032571     -0.2847455266     -0.2089838215
H       1.1927250170      0.7154436867     -1.1826332631
H       1.3680141027     -1.0047699718     -0.9214234912
H       2.6666986295     -0.5837587305      1.1814483705
H       2.4383401026      1.1403180631      1.0028793592
H       4.0102143179     -0.6294403391     -0.9639840428
H       4.7249144326      0.4718991544      0.2076400288
H       3.7819676516      1.1046252497     -1.1363093720
14
step 29  E = -11.00248124 Ha  |g|max = 0.000383
C      -0.0612661711     -0.0565446730      0.4311217536
C       1.2667302229     -0.0507435571     -0.4241151360
C       2.5546172414      0.2140352513      0.4576459240
C       3.8636317019      0.2960775699     -0.4223807003
H      -0.2207162093      0.9112245108      0.8857752040
H      -0.0034729999     -0.8043619420      1.2092863248
H      -0.9040864848     -0.2837392859     -0.2073362000
H       1.1916798537      0.7141895941     -1.1841149828
H       1.3680540810     -1.0050399727     -0.9223299262
H       2.6653395606     -0.5826356367      1.1803311504
H       2.4370697541      1.1413280314      1.0017461606
H       4.0090909944     -0.6292095353     -0.9631587497
H       4.7241518561      0.4709552249      0.2095491695
H       3.7842038517      1.1046248735     -1.1353013278
14
step 30  E = -11.00248392 Ha  |g|max = 0.000538
C      -0.0606852312     -0.0570064064      0.4313794841
C       1.2664231454     -0.0510214654     -0.4251314627
C       2.5542365421      0.2149392159      0.4567025363
C       3.8641229355      0.2958883462     -0.4223474320
H      -0.2180682338      0.9110957631      0.8873284113
H      -0.0023949776     -0.8055917937      1.2096566523
H      -0.9049868320     -0.2829044718     -0.2060283919
H       1.1905101401      0.7136817402     -1.1859430395
H       1.3679799078     -1.0055531033     -0.9232805287
H       2.6640227891     -0.5820799736      1.1795178386
H       2.4357660849      1.1422446480      1.0004958895
H       4.0086253499     -0.6288030750     -0.9620193270
H       4.7231276321      0.4700422021      0.2110019675
H       3.7863479877      1.1052287986     -1.1346139533
14
step 31  E = -11.00248650 Ha  |g|max = 0.000347
C      -0.0601416791     -0.0575054829      0.4318857139
C       1.2664399964     -0.0510325805     -0.4262407115
C       2.5537944822      0.2155596456      0.4562114261
C       3.8638548682      0.2964804305     -0.4220566098
H      -0.2152639385      0.9102906622      0.8889087676
H      -0.0015293004     -0.8064257932      1.2099968268
H      -0.9059466561     -0.2819392600     -0.2044984317
H       1.1889899003      0.7133312792     -1.1879558011
H       1.3678153081     -1.0061854454     -0.9242740735
H       2.6625417936     -0.5815444319      1.1786836446
H       2.4342589000      1.1433084101      0.9988599983
H       4.0089996833     -0.6294764850     -0.9613106557
H       4.7223349788      0.4689666106      0.2126689179
H       3.7888788889      1.1063328332     -1.1341603877
14
step 32  E = -11.00248803 Ha  |g|max = 0.000299
C      -0.0597030742     -0.0579033471      0.4320976263
C       1.2660987697     -0.0511976617     -0.4273479661
C       2.5529083848      0.2159946105      0.4554916053
C       3.8639939422      0.2963232596     -0.4219397283
H      -0.2136409384      0.9093907902      0.8899297468
H      -0.0011420525     -0.8065579912      1.2099373207
H      -0.9062593459     -0.2811792594     -0.2031924505
H       1.1879446618      0.7128955895     -1.1887520188
H       1.3676959020     -1.0061462382     -0.9246068935
H       2.6616842388     -0.5813171479      1.1784823791
H       2.4332450869      1.1440401320      0.9977659439
H       4.0096818998     -0.6296972723     -0.9608921851
H       4.7220053906      0.4682759503      0.2137798622
H       3.7905143505      1.1072389553     -1.1340346313
14
step 33  E = -11.00248881 Ha  |g|max = 0.000279
C      -0.0593138209     -0.0579645983      0.4319435125
C       1.2655154701     -0.0512950624     -0.4275288762
C       2.5525327745      0.2159439865      0.4549302362
C       3.8642395831      0.2964337928     -0.4220172989
H      -0.2129940777      0.9089468319      0.8905189278
H      -0.0009573556     -0.8066822087      1.2098790105
H      -0.9064066137     -0.2807676972     -0.2024679418
H       1.1873470834      0.7127382525     -1.1890325800
H       1.3676703625     -1.0062082394     -0.9248244052
H       2.6612091940     -0.5808913388      1.1783318768
H       2.4326870863      1.1443536002      0.9971331580
H       4.0102793483     -0.6296160697     -0.9607877260
H       4.7218655471      0.4679135795      0.2143461704
H       3.7913526289      1.1072555271     -1.1337054610
14
step 34  E = -11.00249045 Ha  |g|max = 0.000324
C      -0.0593103826     -0.0580347731      0.4326314192
C       1.2649109332     -0.0516709496     -0.4282135021
C       2.5522285140      0.2163182196      0.4534566883
C       3.8648076099      0.2962116589     -0.4215233986
H      -0.2118739938      0.9082551188      0.8919891435
H      -0.0004226945     -0.8070983465      1.2094156803
H      -0.9070436174     -0.2798522611     -0.2010877351
H       1.1857600057      0.7125017898     -1.1893400389
H       1.3674583971     -1.0065229187     -0.9254349352
H       2.6600634650     -0.5793711670      1.1779190681
H       2.4314143554      1.1443308946      0.9950973893
H       4.0122161878     -0.6289541203     -0.9609541213
H       4.7215830488      0.4671564802      0.2156989931
H       3.7932353683      1.1068906941     -1.1329360656
14
step 35  E = -11.00249158 Ha  |g|max = 0.000249
C      -0.0593420116     -0.0581562177      0.4327974438
C       1.2648189326     -0.0518471474     -0.4287416113
C       2.5518720688      0.2162870820      0.4525906129
C       3.8653515120      0.2958292274     -0.4211329260
H      -0.2113359214      0.9084360348      0.8932426298
H      -0.0000161461     -0.8079858546      1.2095217558
H      -0.9077456381     -0.2792708182     -0.2003807111
H       1.1846038653      0.7124240325     -1.1895660473
H       1.3670745977     -1.0068668295     -0.9259478561
H       2.6593628614     -0.5784239608      1.1777461927
H       2.4306377272      1.1447019917      0.9936524211
H       4.0136455112     -0.6287071507     -0.9612982052
H       4.7216360899      0.4667937601      0.2169394696
H       3.7944637381      1.1069461429     -1.1327045973
14
step 36  E = -11.00249229 Ha  |g|max = 0.000206
C      -0.0592452790     -0.0581285823      0.4332633884
C       1.2644189689     -0.0520899985     -0.4291765886
C       2.5517741573      0.2164189607      0.4522441928
C       3.8658418884      0.2958937135     -0.4211800167
H      -0.2110383988      0.9084119878      0.8939256668
H       0.0002031108     -0.8086200446      1.2095115647
H      -0.9082945225     -0.2789181574     -0.2000674994
H       1.1839127158      0.7124459286     -1.1898163244
H       1.3666406322     -1.0070528137     -0.9263283565
H       2.6589735960     -0.5781407018      1.1778883872
H       2.4302679186      1.1451668286      0.9926162059
H       4.0145858045     -0.6288127607     -0.9616004011
H       4.7217328508      0.4666312808      0.2179098449
H       3.7952537375      1.1069546316     -1.1324715016
14
step 37  E = -11.00249282 Ha  |g|max = 0.000156
C      -0.0595292793     -0.0583130163      0.4335525849
C       1.2640011755     -0.0521001511     -0.4293088689
C       2.5518137269      0.2164390136      0.4518751653
C       3.8663649612      0.2957267629     -0.4211376926
H      -0.2107936517      0.9081753715      0.8943581800
H       0.0003101725     -0.8090279533      1.2093439210
H      -0.9083705643     -0.2785372314     -0.1995726473
H       1.1834331358      0.7124382407     -1.1900940655
H       1.3660592626     -1.0072225195     -0.9267218831
H       2.6587437936     -0.5780796986      1.1781376447
H       2.4301378037      1.1457893707      0.9917232155
H       4.0152772451     -0.6288520018     -0.9616981714
H       4.7216748632      0.4665600802      0.2186210625
H       3.7959045302      1.1071639865     -1.1323598908
14
step 38  E = -11.00249337 Ha  |g|max = 0.000262
C      -0.0594072507     -0.0584620660      0.4337117460
C       1.2637314876     -0.0521672659     -0.4293808085
C       2.5517704721      0.2162318307      0.4516673755
C       3.8665849382      0.2955878974     -0.4211094045
H      -0.2105539528      0.9075563552      0.8948717062
H       0.0002441912     -0.8095694897      1.2091196306
H      -0.9085742653     -0.2781180687     -0.1989804435
H       1.1829071030      0.7122483823     -1.1903480787
H       1.3648743198     -1.0070031528     -0.9270870740
H       2.6585446203     -0.5776112201      1.1781676467
H       2.4304090072      1.1464095596      0.9902782473
H       4.0161061886     -0.6288346187     -0.9615352863
H       4.7215152674      0.4665248940      0.2193728319
H       3.7968750409      1.1073671884     -1.1320295463
14
step 39  E = -11.00249367 Ha  |g|max = 0.000133
C      -0.0592838480     -0.0586506259      0.4337970001
C       1.2637078654     -0.0521133134     -0.4294690655
C       2.5517011147      0.2163878716      0.4512587140
C       3.8666703408      0.2955925279     -0.4209153522
H      -0.2104410816      0.9073213842      0.8952680459
H       0.0001765507     -0.8098890658      1.2090043621
H      -0.9087712189     -0.2779381646     -0.1987585559
H       1.1826604816      0.7121051804     -1.1903817326
H       1.3641713718     -1.0069131451     -0.9272843545
H       2.6584873676     -0.5773867671      1.1782912153
H       2.4306619614      1.1466065028      0.9894399688
H       4.0165541626     -0.6288685813     -0.9614199965
H       4.7213258645      0.4664811479      0.2196854766
H       3.7974062308      1.1074252567     -1.1317971902
14
step 40  E = -11.00249384 Ha  |g|max = 0.000090
C      -0.0593960384     -0.0586664406      0.4338495767
C       1.2636389489     -0.0521316186     -0.4296431864
C       2.5517456497      0.2163806586      0.4509400077
C       3.8667781549      0.2955251852     -0.4209400165
H      -0.2103604153      0.9072600366      0.8956900922
H       0.0001407517     -0.8102082483      1.2090032686
H      -0.9088929398     -0.2779222655     -0.1987873400
H       1.1825600837      0.7121617426     -1.1903542643
H       1.3638127409     -1.0069938823     -0.9274088890
H       2.6584812195     -0.5769621265      1.1782555039
H       2.4308858837      1.1467290930      0.9890425212
H       4.0167551075     -0.6288144267     -0.9612137597
H       4.7211839132      0.4664360666      0.2198832807
H       3.7976941002      1.1073664195     -1.1315982656
