14
tight_a optimised (CG)  E = -11.00249174 Ha  |g|max = 0.000085
C      -0.0572885284     -0.0312625439      0.4388025593
C       1.2579982645     -0.1080757987     -0.4332428441
C       2.5653894208      0.1080757940      0.4332428426
C       3.8806762568      0.0312625417     -0.4388025601
H      -0.1650821149      0.9546947760      0.8692425369
H      -0.0222082473     -0.7584802552      1.2382216107
H      -0.9198228856     -0.2366319254     -0.1807929768
H       1.2120232007      0.6469079614     -1.2064697594
H       1.3042944801     -1.0749614179     -0.9155334497
H       2.6113645340     -0.6469079687      1.2064697647
H       2.5190932544      1.0749614234      0.9155334532
H       3.9884698430     -0.9546948009     -0.8692425480
H       4.7432106423      0.2366319283      0.1807929930
H       3.8455959727      0.7584802697     -1.2382216288
