14
tight_b optimised (CG)  E = -11.00249384 Ha  |g|max = 0.000090
C      -0.0593960384     -0.0586664406      0.4338495767
C       1.2636389489     -0.0521316186     -0.4296431864
C       2.5517456497      0.2163806586      0.4509400077
C       3.8667781549      0.2955251852     -0.4209400165
H      -0.2103604153      0.9072600366      0.8956900922
H       0.0001407517     -0.8102082483      1.2090032686
H      -0.9088929398     -0.2779222655     -0.1987873400
H       1.1825600837      0.7121617426     -1.1903542643
H       1.3638127409     -1.0069938823     -0.9274088890
H       2.6584812195     -0.5769621265      1.1782555039
H       2.4308858837      1.1467290930      0.9890425212
H       4.0167551075     -0.6288144267     -0.9612137597
H       4.7211839132      0.4664360666      0.2198832807
H       3.7976941002      1.1073664195     -1.1315982656
