14
step 0  E = -11.00149565 Ha
C      -0.0477868050     -0.0019160410      0.4332406321
C       1.2615359485     -0.0035510330     -0.4501783074
C       2.5618517781      0.0035510330      0.4501783074
C       3.8711745316      0.0019160410     -0.4332406321
H      -0.3459126212      1.0151095572      0.6462017953
H       0.1333769624     -0.5138162925      1.3677728760
H      -0.8514139738     -0.5022996409     -0.0894388776
H       1.2659479964      0.8691740777     -1.0890017332
H       1.2709819626     -0.8794073510     -1.0840608504
H       2.5574397302     -0.8691740777      1.0890017332
H       2.5524057640      0.8794073510      1.0840608504
H       4.1693003478     -1.0151095572     -0.6462017954
H       4.6748017004      0.5022996408      0.0894388776
H       3.6900107642      0.5138162925     -1.3677728760
14
step 1  E = -11.00150840 Ha  |g|max = 0.001609
C      -0.0489535621     -0.0020651476      0.4323517304
C       1.2612641246     -0.0035606020     -0.4485943302
C       2.5621236020      0.0035606020      0.4485943302
C       3.8723412887      0.0020651476     -0.4323517305
H      -0.3469332650      1.0150860256      0.6466916851
H       0.1315121126     -0.5144994471      1.3684288115
H      -0.8521222717     -0.5015715060     -0.0894064253
H       1.2650622310      0.8689545276     -1.0890207662
H       1.2703254387     -0.8800194317     -1.0837241189
H       2.5583254956     -0.8689545276      1.0890207662
H       2.5530622879      0.8800194317      1.0837241189
H       4.1703209916     -1.0150860256     -0.6466916851
H       4.6755099983      0.5015715060      0.0894064254
H       3.6918756141      0.5144994471     -1.3684288115
14
step 2  E = -11.00165625 Ha  |g|max = 0.000645
C      -0.0623740572     -0.0028535738      0.4365812847
C       1.2542570463     -0.0068259310     -0.4419922795
C       2.5691306803      0.0068259309      0.4419922793
C       3.8857617838      0.0028535738     -0.4365812849
H      -0.3628140329      1.0129894889      0.6532790561
H       0.0998750838     -0.5216435304      1.3710384622
H      -0.8681404579     -0.4932728488     -0.0938249270
H       1.2510348821      0.8621959201     -1.0861744249
H       1.2598007975     -0.8843178099     -1.0737964112
H       2.5723528445     -0.8621959199      1.0861744249
H       2.5635869290      0.8843178098      1.0737964110
H       4.1862017593     -1.0129894892     -0.6532790559
H       4.6915281847      0.4932728487      0.0938249271
H       3.7235126430      0.5216435305     -1.3710384624
14
step 3  E = -11.00166265 Ha  |g|max = 0.000809
C      -0.0634386996     -0.0033428448      0.4365565042
C       1.2539723705     -0.0067540525     -0.4406531192
C       2.5694153561      0.0067540527      0.4406531190
C       3.8868264265      0.0033428446     -0.4365565040
H      -0.3631212854      1.0132537612      0.6540977995
H       0.0973236829     -0.5228427566      1.3714242355
H      -0.8678809139     -0.4921114137     -0.0951696537
H       1.2493127225      0.8614410644     -1.0858460353
H       1.2584384417     -0.8856305203     -1.0724818309
H       2.5740750041     -0.8614410643      1.0858460353
H       2.5649492847      0.8856305202      1.0724818306
H       4.1865090118     -1.0132537612     -0.6540977993
H       4.6912686404      0.4921114135      0.0951696536
H       3.7260640440      0.5228427566     -1.3714242357
14
step 4  E = -11.00168613 Ha  |g|max = 0.000384
C      -0.0654675964     -0.0032676480      0.4389775613
C       1.2518957612     -0.0089647275     -0.4379545725
C       2.5714919658      0.0089647278      0.4379545726
C       3.8888553230      0.0032676479     -0.4389775611
H      -0.3628543896      1.0133967695      0.6571997076
H       0.0876956004     -0.5277618492      1.3720842037
H      -0.8666909843     -0.4882050487     -0.1024836824
H       1.2424216393      0.8585086612     -1.0845292859
H       1.2529415109     -0.8897335014     -1.0657739644
H       2.5809660872     -0.8585086613      1.0845292854
H       2.5704462155      0.8897335017      1.0657739641
H       4.1862421161     -1.0133967691     -0.6571997075
H       4.6900787104      0.4882050483      0.1024836821
H       3.7356921268      0.5277618485     -1.3720842034
14
step 5  E = -11.00168975 Ha  |g|max = 0.000690
C      -0.0644618494     -0.0033810034      0.4388485277
C       1.2518792922     -0.0088393812     -0.4383357834
C       2.5715084337      0.0088393811      0.4383357831
C       3.8878495756      0.0033810034     -0.4388485279
H      -0.3618788191      1.0131705599      0.6579065031
H       0.0877194478     -0.5284203641      1.3715298504
H      -0.8665638887     -0.4874277222     -0.1029113813
H       1.2424253893      0.8572069355     -1.0848117944
H       1.2531051814     -0.8900364515     -1.0652330249
H       2.5809623374     -0.8572069356      1.0848117941
H       2.5702825452      0.8900364519      1.0652330249
H       4.1852665459     -1.0131705608     -0.6579065031
H       4.6899516160      0.4874277225      0.1029113818
H       3.7356682790      0.5284203640     -1.3715298508
14
step 6  E = -11.00170404 Ha  |g|max = 0.001024
C      -0.0620549985     -0.0036565407      0.4377580317
C       1.2536355380     -0.0107724773     -0.4381019756
C       2.5697521844      0.0107724772      0.4381019747
C       3.8854427260      0.0036565406     -0.4377580323
H      -0.3567116665      1.0119524665      0.6613474886
H       0.0887134315     -0.5319417046      1.3690763307
H      -0.8652293914     -0.4832909567     -0.1043440335
H       1.2428141426      0.8531180935     -1.0879196343
H       1.2541865327     -0.8917815064     -1.0631468855
H       2.5805735841     -0.8531180935      1.0879196353
H       2.5692011947      0.8917815062      1.0631468859
H       4.1800993936     -1.0119524701     -0.6613474885
H       4.6886171212      0.4832909583      0.1043440359
H       3.7346742941      0.5319417064     -1.3690763338
14
step 7  E = -11.00174248 Ha  |g|max = 0.001623
C      -0.0579109892     -0.0055203110      0.4387811875
C       1.2550713156     -0.0148010518     -0.4403395743
C       2.5683164124      0.0148010512      0.4403395724
C       3.8812987187      0.0055203116     -0.4387811895
H      -0.3405475124      1.0106585614      0.6719404516
H       0.0926965564     -0.5433707582      1.3611207210
H      -0.8626988425     -0.4714957813     -0.1100123489
H       1.2448774260      0.8428423614     -1.0985581771
H       1.2586928184     -0.9016718936     -1.0589608146
H       2.5785102988     -0.8428423591      1.0985581786
H       2.5646949090      0.9016718901      1.0589608144
H       4.1639352383     -1.0106585623     -0.6719404500
H       4.6860865685      0.4714957807      0.1100123498
H       3.7306911688      0.5433707591     -1.3611207220
14
step 8  E = -11.00177878 Ha  |g|max = 0.001383
C      -0.0540111212     -0.0054419049      0.4372899350
C       1.2559850660     -0.0194147070     -0.4429091547
C       2.5674026672      0.0194147055      0.4429091516
C       3.8773988487      0.0054419049     -0.4372899369
H      -0.3263605333      1.0106316457      0.6819963807
H       0.0965729503     -0.5556385946      1.3563480439
H      -0.8625280469     -0.4615951856     -0.1154674340
H       1.2467156604      0.8342673202     -1.1080101887
H       1.2630493788     -0.9112159839     -1.0549382384
H       2.5766720632     -0.8342673169      1.1080101901
H       2.5603383485      0.9112159794      1.0549382378
H       4.1497482589     -1.0106316440     -0.6819963784
H       4.6859157711      0.4615951838      0.1154674337
H       3.7268147754      0.5556385944     -1.3563480431
14
step 9  E = -11.00179717 Ha  |g|max = 0.001074
C      -0.0528360491     -0.0064537244      0.4370033720
C       1.2583915883     -0.0215443243     -0.4445877981
C       2.5649961401      0.0215443232      0.4445877967
C       3.8762237770      0.0064537241     -0.4370033729
H      -0.3204898032      1.0117873290      0.6870258507
H       0.0977752839     -0.5614461396      1.3534405660
H      -0.8645379660     -0.4570956784     -0.1175647153
H       1.2474231772      0.8300761254     -1.1114903412
H       1.2652429925     -0.9159709383     -1.0524711311
H       2.5759645474     -0.8300761235      1.1114903422
H       2.5581447355      0.9159709351      1.0524711302
H       4.1438775298     -1.0117873291     -0.6870258496
H       4.6879256918      0.4570956774      0.1175647152
H       3.7256124420      0.5614461398     -1.3534405664
14
step 10  E = -11.00186067 Ha  |g|max = 0.001743
C      -0.0514793166     -0.0074194794      0.4337460465
C       1.2591934568     -0.0309100747     -0.4464094469
C       2.5641942484      0.0309100751      0.4464094504
C       3.8748670392      0.0074194774     -0.4337460443
H      -0.3003596355      1.0109481334      0.7045865302
H       0.0982638933     -0.5822739026      1.3385513136
H      -0.8774765365     -0.4388654160     -0.1201848969
H       1.2502272479      0.8151820166     -1.1216954270
H       1.2753295631     -0.9347043794     -1.0417478470
H       2.5731604830     -0.8151820263      1.1216954268
H       2.5480581671      0.9347043893      1.0417478472
H       4.1237473682     -1.0109481432     -0.7045865368
H       4.7008642743      0.4388654214      0.1201848998
H       3.7251238353      0.5822739032     -1.3385513176
14
step 11  E = -11.00189011 Ha  |g|max = 0.001326
C      -0.0531060166     -0.0090194107      0.4327384584
C       1.2598953470     -0.0343092923     -0.4477872370
C       2.5634923663      0.0343092928      0.4477872417
C       3.8764937400      0.0090194071     -0.4327384538
H      -0.2918511181      1.0090640961      0.7117046406
H       0.0972068130     -0.5906365157      1.3315839962
H      -0.8816940983     -0.4294078928     -0.1200465067
H       1.2510305571      0.8077347087     -1.1258514480
H       1.2794430987     -0.9419733738     -1.0366467534
H       2.5723571732     -0.8077347177      1.1258514455
H       2.5439446296      0.9419733835      1.0366467524
H       4.1152388499     -1.0090641004     -0.7117046466
H       4.7050818298      0.4294078955      0.1200465058
H       3.7261809167      0.5906365138     -1.3315839974
14
step 12  E = -11.00192381 Ha  |g|max = 0.001301
C      -0.0515303770     -0.0104885867      0.4319166910
C       1.2596831485     -0.0390235648     -0.4467505557
C       2.5637045962      0.0390235653      0.4467505588
C       3.8749181028      0.0104885848     -0.4319166906
H      -0.2828694129      1.0044929539      0.7194346263
H       0.0930253906     -0.6004390998      1.3244777190
H      -0.8874614907     -0.4171657583     -0.1205120930
H       1.2508984398      0.7985612232     -1.1320790934
H       1.2835018190     -0.9489101873     -1.0303547501
H       2.5724892848     -0.7985612234      1.1320790884
H       2.5398859042      0.9489101868      1.0303547467
H       4.1062571394     -1.0044929439     -0.7194346258
H       4.7108492046      0.4171657526      0.1205120855
H       3.7303623394      0.6004390910     -1.3244777097
14
step 13  E = -11.00196212 Ha  |g|max = 0.001972
C      -0.0503647264     -0.0139498410      0.4309191296
C       1.2614755314     -0.0425287168     -0.4476645049
C       2.5619122162      0.0425287162      0.4476645009
C       3.8737524562      0.0139498401     -0.4309191321
H      -0.2733308740      1.0011826466      0.7293141574
H       0.0859311803     -0.6134577963      1.3195968513
H      -0.8937770103     -0.4022233473     -0.1227463161
H       1.2491550713      0.7861377193     -1.1392778802
H       1.2870023521     -0.9572978052     -1.0232522307
H       2.5742326518     -0.7861377145      1.1392778796
H       2.5363853710      0.9572977977      1.0232522296
H       4.0967185976     -1.0011826405     -0.7293141537
H       4.7171647270      0.4022233418      0.1227463141
H       3.7374565448      0.6134577925     -1.3195968477
14
step 14  E = -11.00201970 Ha  |g|max = 0.002006
C      -0.0505400043     -0.0172052406      0.4319692513
C       1.2623735369     -0.0526676922     -0.4481123282
C       2.5610141822      0.0526676878      0.4481123185
C       3.8739277407      0.0172052430     -0.4319692591
H      -0.2580071579      0.9960876789      0.7455298878
H       0.0733208707     -0.6349372051      1.3130370601
H      -0.9027526574     -0.3793311412     -0.1290061467
H       1.2453733405      0.7689904307     -1.1527643974
H       1.2917279210     -0.9711939234     -1.0126276164
H       2.5780143858     -0.7689904229      1.1527644046
H       2.5316598073      0.9711939121      1.0126276204
H       4.0813948813     -0.9960876936     -0.7455298847
H       4.7261403963      0.3793311431      0.1290061603
H       3.7500668466      0.6349372147     -1.3130370739
14
step 15  E = -11.00209285 Ha  |g|max = 0.001867
C      -0.0528299658     -0.0218403969      0.4347725402
C       1.2598435878     -0.0617149855     -0.4469742715
C       2.5635441138      0.0617149791      0.4469742592
C       3.8762177023      0.0218404003     -0.4347725488
H      -0.2393261660      0.9908967838      0.7655831039
H       0.0574614808     -0.6589699274      1.3033437440
H      -0.9106055372     -0.3530984128     -0.1375432731
H       1.2402101036      0.7480960680     -1.1672927747
H       1.2969082254     -0.9910530254     -1.0016467545
H       2.5831776257     -0.7480960591      1.1672927855
H       2.5264795066      0.9910530115      1.0016467603
H       4.0627138900     -0.9908968081     -0.7655831007
H       4.7339932893      0.3530984188      0.1375432930
H       3.7659262339      0.6589699434     -1.3033437667
14
step 16  E = -11.00219225 Ha  |g|max = 0.005109
C      -0.0582122822     -0.0241599523      0.4358627303
C       1.2587601633     -0.0762260406     -0.4457178447
C       2.5646275977      0.0762260369      0.4457178380
C       3.8816000058      0.0241599508     -0.4358627260
H      -0.2156175321      0.9837523019      0.7927442271
H       0.0364223125     -0.6857698409      1.2874295360
H      -0.9138627174     -0.3235247662     -0.1485494508
H       1.2314628086      0.7196805876     -1.1777650903
H       1.3007003365     -1.0133128666     -0.9846003257
H       2.5919249150     -0.7196805802      1.1777650873
H       2.5226873864      1.0133128537      0.9846003214
H       4.0390052560     -0.9837522809     -0.7927442157
H       4.7372504227      0.3235247573      0.1485494332
H       3.7869654180      0.6857698275     -1.2874295248
14
step 17  E = -11.00232287 Ha  |g|max = 0.001962
C      -0.0571605727     -0.0267685032      0.4364143978
C       1.2576972074     -0.0937414031     -0.4393929829
C       2.5656905860      0.0937414044      0.4393929922
C       3.8805482850      0.0267685002     -0.4364143895
H      -0.1872989940      0.9752579674      0.8267289285
H       0.0097849736     -0.7178013933      1.2667099039
H      -0.9198532277     -0.2885472243     -0.1641107754
H       1.2200382172      0.6854408100     -1.1896153563
H       1.3044847123     -1.0409302701     -0.9622430085
H       2.6033495049     -0.6854408114      1.1896153398
H       2.5189030042      1.0409302650      0.9622429936
H       4.0106867208     -0.9752579153     -0.8267289155
H       4.7432409018      0.2885472061      0.1641107291
H       3.8136027731      0.7178013535     -1.2667098625
14
step 18  E = -11.00238527 Ha  |g|max = 0.002407
C      -0.0553683033     -0.0290747226      0.4368366367
C       1.2605698700     -0.0979700400     -0.4377224707
C       2.5628178072      0.0979700427      0.4377224797
C       3.8787560278      0.0290747183     -0.4368366339
H      -0.1764566968      0.9680900444      0.8397363647
H      -0.0022065974     -0.7302178632      1.2566649365
H      -0.9198331550     -0.2716276375     -0.1696416491
H       1.2146499039      0.6713706894     -1.1930852197
H       1.3049449356     -1.0522768945     -0.9479493870
H       2.6087378357     -0.6713707116      1.1930852240
H       2.5184427959      1.0522769111      0.9479493847
H       3.9998444273     -0.9680900664     -0.8397363788
H       4.7432209096      0.2716276414      0.1696416566
H       3.8255943319      0.7302178735     -1.2566649498
14
step 19  E = -11.00243562 Ha  |g|max = 0.001450
C      -0.0542098386     -0.0304742235      0.4356152303
C       1.2596657422     -0.1037514860     -0.4359705449
C       2.5637218891      0.1037514797      0.4359705485
C       3.8775975673      0.0304742201     -0.4356152326
H      -0.1682154580      0.9611801484      0.8499876652
H      -0.0117601272     -0.7412523088      1.2492538334
H      -0.9181141311     -0.2566852266     -0.1736529913
H       1.2106680661      0.6620670538     -1.1972427318
H       1.3052750627     -1.0609721123     -0.9342184539
H       2.6127196788     -0.6620670776      1.1972427445
H       2.5181126748      1.0609721394      0.9342184630
H       3.9916031881     -0.9611802106     -0.8499876918
H       4.7415019265      0.2566852416      0.1736530312
H       3.8351478517      0.7412523466     -1.2492538761
14
step 20  E = -11.00245791 Ha  |g|max = 0.001099
C      -0.0546777986     -0.0320960956      0.4373891002
C       1.2580946543     -0.1048608935     -0.4351641553
C       2.5652930709      0.1048608915      0.4351641557
C       3.8780655301      0.0320960906     -0.4373891029
H      -0.1646955639      0.9583172708      0.8551505212
H      -0.0160296914     -0.7472367846      1.2454329799
H      -0.9174288857     -0.2486729696     -0.1767470085
H       1.2094802070      0.6580362354     -1.2000463040
H       1.3057125406     -1.0671826061     -0.9271537122
H       2.6139075213     -0.6580362380      1.2000463030
H       2.5176751847      1.0671826063      0.9271537142
H       3.9880832886     -0.9583172817     -0.8551505254
H       4.7408166182      0.2486729694      0.1767470141
H       3.8394174167      0.7472367891     -1.2454329864
14
step 21  E = -11.00247020 Ha  |g|max = 0.000626
C      -0.0558188943     -0.0320660337      0.4385265698
C       1.2587895524     -0.1061998299     -0.4346830161
C       2.5645982315      0.1061998320      0.4346830126
C       3.8792066248      0.0320660323     -0.4385265737
H      -0.1633186399      0.9573433761      0.8586112963
H      -0.0180312104     -0.7518947177      1.2442028388
H      -0.9175778396     -0.2441168248     -0.1791072106
H       1.2092940017      0.6557213504     -1.2018710081
H       1.3058674186     -1.0704389937     -0.9228581712
H       2.6140937167     -0.6557213411      1.2018709997
H       2.5175203003      1.0704389760      0.9228581678
H       3.9867063621     -0.9573433521     -0.8586112857
H       4.7409655313      0.2441168137      0.1791071917
H       3.8414189377      0.7518946960     -1.2442028178
14
step 22  E = -11.00247581 Ha  |g|max = 0.000521
C      -0.0556802972     -0.0323051758      0.4384773818
C       1.2584592848     -0.1068138522     -0.4344652489
C       2.5649284725      0.1068138507      0.4344652441
C       3.8790680260      0.0323051742     -0.4384773837
H      -0.1633129438      0.9576020872      0.8609097672
H      -0.0188768309     -0.7541360308      1.2436135308
H      -0.9180422785     -0.2421303146     -0.1802527620
H       1.2097124323      0.6538410492     -1.2023348447
H       1.3059035963     -1.0715284301     -0.9209019905
H       2.6136752908     -0.6538410431      1.2023348398
H       2.5174841276      1.0715284184      0.9209019896
H       3.9867006675     -0.9576020744     -0.8609097613
H       4.7414299877      0.2421303065      0.1802527518
H       3.8422645577      0.7541360184     -1.2436135204
14
step 23  E = -11.00248437 Ha  |g|max = 0.000528
C      -0.0563997206     -0.0317320710      0.4393570844
C       1.2583392324     -0.1075866976     -0.4331174216
C       2.5650484091      0.1075866907      0.4331174223
C       3.8797874482      0.0317320679     -0.4393570832
H      -0.1642319284      0.9566197887      0.8648927098
H      -0.0201775102     -0.7562835056      1.2408870676
H      -0.9184595574     -0.2392857112     -0.1810664762
H       1.2112609102      0.6495562992     -1.2028874748
H       1.3058239339     -1.0728729517     -0.9184864102
H       2.6121268323     -0.6495563133      1.2028874849
H       2.5175638080      1.0728729656      0.9184864161
H       3.9876196588     -0.9566198323     -0.8648927285
H       4.7418473415      0.2392857187      0.1810665064
H       3.8435652350      0.7562835355     -1.2408871036
14
step 24  E = -11.00248669 Ha  |g|max = 0.000400
C      -0.0567774218     -0.0313419012      0.4390776367
C       1.2581489372     -0.1081643986     -0.4327192673
C       2.5652387345      0.1081643933      0.4327192673
C       3.8801651465      0.0313419005     -0.4390776357
H      -0.1645806507      0.9561164678      0.8660721499
H      -0.0206176208     -0.7568509038      1.2402230138
H      -0.9183612894     -0.2385311682     -0.1809135581
H       1.2116470786      0.6487659193     -1.2034918262
H       1.3056865931     -1.0732645594     -0.9178226028
H       2.6117406590     -0.6487659307      1.2034918326
H       2.5177011445      1.0732645688      0.9178226060
H       3.9879683807     -0.9561164967     -0.8660721628
H       4.7417490540      0.2385311716      0.1809135763
H       3.8440053477      0.7568509209     -1.2402230362
14
step 25  E = -11.00248986 Ha  |g|max = 0.000500
C      -0.0568144278     -0.0312249696      0.4388812602
C       1.2578524897     -0.1081729886     -0.4333044236
C       2.5655353399      0.1081729925      0.4333044225
C       3.8802021526      0.0312249672     -0.4388812610
H      -0.1653268504      0.9551914906      0.8681843896
H      -0.0217076531     -0.7572881842      1.2389226739
H      -0.9186861390     -0.2375048232     -0.1805143536
H       1.2120337152      0.6478405069     -1.2050541699
H       1.3051206917     -1.0745772886     -0.9167776659
H       2.6113539955     -0.6478404966      1.2050541547
H       2.5182670214      1.0745772676      0.9167776560
H       3.9887145742     -0.9551914367     -0.8681843682
H       4.7420737963      0.2375048051      0.1805143098
H       3.8450953867      0.7572881413     -1.2389226311
14
step 26  E = -11.00249084 Ha  |g|max = 0.000138
C      -0.0567760361     -0.0310699060      0.4388896339
C       1.2582851441     -0.1081834511     -0.4334063475
C       2.5651026551      0.1081834529      0.4334063485
C       3.8801637629      0.0310699025     -0.4388896364
H      -0.1655016198      0.9549050274      0.8688306548
H      -0.0220466074     -0.7576014013      1.2386387569
H      -0.9191010787     -0.2372226955     -0.1805451159
H       1.2120745217      0.6476037361     -1.2057054974
H       1.3048319752     -1.0749191867     -0.9163631461
H       2.6113131936     -0.6476037294      1.2057054859
H       2.5185557419      1.0749191716      0.9163631390
H       3.9888893442     -0.9549049912     -0.8688306405
H       4.7424887573      0.2372226825      0.1805450858
H       3.8454343390      0.7576013717     -1.2386387276
14
step 27  E = -11.00249121 Ha  |g|max = 0.000178
C      -0.0568600113     -0.0311586984      0.4386803069
C       1.2582424819     -0.1081397312     -0.4334620428
C       2.5651452201      0.1081397278      0.4334620428
C       3.8802477392      0.0311586963     -0.4386803080
H      -0.1654409943      0.9549393927      0.8691064159
H      -0.0221351684     -0.7579567247      1.2386247916
H      -0.9193916667     -0.2370434974     -0.1806280352
H       1.2120705464      0.6473833010     -1.2060149189
H       1.3046369342     -1.0749177301     -0.9160446615
H       2.6113171852     -0.6473833082      1.2060149222
H       2.5187507973      1.0749177344      0.9160446633
H       3.9888287221     -0.9549394114     -0.8691064243
H       4.7427794126      0.2370434986      0.1806280455
H       3.8455228949      0.7579567344     -1.2386248041
14
step 28  E = -11.00249161 Ha  |g|max = 0.000168
C      -0.0571710134     -0.0312710841      0.4388327043
C       1.2580127680     -0.1080273660     -0.4334265524
C       2.5653748709      0.1080273594      0.4334265512
C       3.8805587428      0.0312710813     -0.4388327052
H      -0.1651911946      0.9547884535      0.8692196271
H      -0.0221817711     -0.7583249657      1.2383569890
H      -0.9197599190     -0.2367707128     -0.1807935918
H       1.2120568904      0.6470222539     -1.2063598448
H       1.3043911561     -1.0749126494     -0.9156510067
H       2.6113308519     -0.6470222689      1.2063598574
H       2.5189965850      1.0749126648      0.9156510142
H       3.9885789243     -0.9547885045     -0.8692196490
H       4.7431477076      0.2367707227      0.1807936274
H       3.8455694942      0.7583249995     -1.2383570273
14
step 29  E = -11.00249174 Ha  |g|max = 0.000085
C      -0.0572885284     -0.0312625439      0.4388025593
C       1.2579982645     -0.1080757987     -0.4332428441
C       2.5653894208      0.1080757940      0.4332428426
C       3.8806762568      0.0312625417     -0.4388025601
H      -0.1650821149      0.9546947760      0.8692425369
H      -0.0222082473     -0.7584802552      1.2382216107
H      -0.9198228856     -0.2366319254     -0.1807929768
H       1.2120232007      0.6469079614     -1.2064697594
H       1.3042944801     -1.0749614179     -0.9155334497
H       2.6113645340     -0.6469079687      1.2064697647
H       2.5190932544      1.0749614234      0.9155334532
H       3.9884698430     -0.9546948009     -0.8692425480
H       4.7432106423      0.2366319283      0.1807929930
H       3.8455959727      0.7584802697     -1.2382216288
