14
butane optimised (CG)  E = -11.00196694 Ha  |g|max = 0.000915
C       0.0722569573     -0.3326523571      0.4507572937
C       1.3476803258      0.0309335017     -0.4074318124
C       2.6741997521      0.0066014193      0.4608269171
C       3.8195733776      0.8966882341     -0.1619717156
H       0.0622408551     -1.3879440969      0.6838099701
H      -0.8238107435     -0.0881631525     -0.1055521098
H       0.0737485654      0.2298772083      1.3748495952
H       1.2071791099      1.0149353448     -0.8341450089
H       1.4417268172     -0.6730590075     -1.2225738191
H       3.0251973232     -1.0128470895      0.5473884983
H       2.4591857257      0.3701269173      1.4567127076
H       3.4779739361      1.9164519863     -0.2701757514
H       4.1076048060      0.5221176315     -1.1325333274
H       4.6810907266      0.8856563030      0.4909983302
