14
butane_sym optimised (CG)  E = -11.00170486 Ha  |g|max = 0.000796
C      -0.0595711260     -0.0033810980      0.4357025095
C       1.2549099213      0.0035060272     -0.4419892023
C       2.5610990025      0.0744804842      0.4493559265
C       3.8653180327      0.3019831930     -0.4134300610
H      -0.3605261445      1.0105274848      0.6551969180
H       0.1067402172     -0.5239067859      1.3673372183
H      -0.8608173835     -0.4938552036     -0.0991633629
H       1.2307904042      0.8605359210     -1.1003812845
H       1.2847191408     -0.8853195628     -1.0576234005
H       2.6652857385     -0.8473859569      1.0061540847
H       2.4598217519      0.8805426831      1.1624435331
H       4.2380010023     -0.6474177652     -0.7730585862
H       4.6319275182      0.7717410146      0.1877632769
H       3.6573282889      0.9381090792     -1.2615829386
