14
step 0  E = -11.00196694 Ha
C       0.0722569573     -0.3326523571      0.4507572937
C       1.3476803258      0.0309335017     -0.4074318124
C       2.6741997521      0.0066014193      0.4608269171
C       3.8195733776      0.8966882341     -0.1619717156
H       0.0622408551     -1.3879440969      0.6838099701
H      -0.8238107435     -0.0881631525     -0.1055521098
H       0.0737485654      0.2298772083      1.3748495952
H       1.2071791099      1.0149353448     -0.8341450089
H       1.4417268172     -0.6730590075     -1.2225738191
H       3.0251973232     -1.0128470895      0.5473884983
H       2.4591857257      0.3701269173      1.4567127076
H       3.4779739361      1.9164519863     -0.2701757514
H       4.1076048060      0.5221176315     -1.1325333274
H       4.6810907266      0.8856563030      0.4909983302
14
step 1  E = -11.00197296 Ha  |g|max = 0.000608
C       0.0717391280     -0.3321705777      0.4504322877
C       1.3479702039      0.0312730001     -0.4069314434
C       2.6735533107      0.0067021463      0.4607041604
C       3.8190914982      0.8971666351     -0.1613232102
H       0.0622814157     -1.3881632798      0.6839185257
H      -0.8234567546     -0.0885623096     -0.1050943151
H       0.0732669393      0.2295774149      1.3745831043
H       1.2075434140      1.0149376609     -0.8339944328
H       1.4417396383     -0.6731694522     -1.2227494590
H       3.0249845324     -1.0128208738      0.5474632585
H       2.4592728816      0.3699363720      1.4566773516
H       3.4781811059      1.9167901568     -0.2702181573
H       4.1080143076      0.5215452842     -1.1332913632
H       4.6816659143      0.8856806719      0.4907834543
14
step 2  E = -11.00197893 Ha  |g|max = 0.000596
C       0.0719446618     -0.3326270099      0.4504038582
C       1.3475442785      0.0314987749     -0.4068928401
C       2.6727518929      0.0068390914      0.4612542452
C       3.8190530813      0.8971607491     -0.1618780138
H       0.0624051290     -1.3877625359      0.6839760324
H      -0.8238463579     -0.0895342969     -0.1045696414
H       0.0712783500      0.2288446461      1.3740248729
H       1.2089840509      1.0152912960     -0.8334906078
H       1.4417475811     -0.6727578687     -1.2224192074
H       3.0239987689     -1.0123766521      0.5476032005
H       2.4593532806      0.3692657513      1.4568462321
H       3.4787931059      1.9185351532     -0.2703348474
H       4.1086043926      0.5205180659     -1.1334466071
H       4.6832353227      0.8858277108      0.4898830610
14
step 3  E = -11.00198551 Ha  |g|max = 0.000879
C       0.0714142090     -0.3330133015      0.4497592299
C       1.3472128021      0.0317541805     -0.4065340468
C       2.6731165691      0.0075427365      0.4607158339
C       3.8198213772      0.8981052384     -0.1622415644
H       0.0628390054     -1.3881137107      0.6842035661
H      -0.8248069336     -0.0913118238     -0.1041480247
H       0.0680648407      0.2281617751      1.3740019921
H       1.2110877074      1.0163877354     -0.8328065832
H       1.4417795542     -0.6720787642     -1.2219711704
H       3.0224098875     -1.0121086421      0.5478365544
H       2.4590593442      0.3686875107      1.4583128321
H       3.4804993035      1.9194839993     -0.2706154113
H       4.1089760593      0.5192181419     -1.1329941013
H       4.6843738175      0.8860078483      0.4874405853
14
step 4  E = -11.00199001 Ha  |g|max = 0.000485
C       0.0705816411     -0.3332600003      0.4500710676
C       1.3475892023      0.0328847446     -0.4062085409
C       2.6735234494      0.0087284250      0.4616186627
C       3.8201410530      0.8984079894     -0.1627443365
H       0.0633759864     -1.3887719499      0.6843139283
H      -0.8260891729     -0.0929010993     -0.1045306958
H       0.0655134397      0.2276830654      1.3740253468
H       1.2124515273      1.0172053484     -0.8322104128
H       1.4418104359     -0.6716413338     -1.2218962442
H       3.0214368458     -1.0121512120      0.5478390163
H       2.4589924696      0.3681716921      1.4586274801
H       3.4821966499      1.9196956317     -0.2710912687
H       4.1089334829      0.5185266616     -1.1325482406
H       4.6853905386      0.8861450073      0.4856938861
14
step 5  E = -11.00199465 Ha  |g|max = 0.000473
C       0.0698467084     -0.3336309186      0.4499257243
C       1.3479246309      0.0337787408     -0.4049195819
C       2.6738331846      0.0086560291      0.4625125365
C       3.8203584220      0.8975471608     -0.1623707031
H       0.0642855097     -1.3894355432      0.6842268433
H      -0.8275457220     -0.0950371970     -0.1057526054
H       0.0628654642      0.2275656156      1.3746157002
H       1.2130227971      1.0187223974     -0.8318294877
H       1.4419758061     -0.6705368496     -1.2214544017
H       3.0208485408     -1.0114616739      0.5475485465
H       2.4590954787      0.3684250348      1.4591751660
H       3.4841151358      1.9198824210     -0.2722286920
H       4.1083465062      0.5179977993     -1.1329973170
H       4.6868750934      0.8862500167      0.4845078621
14
step 6  E = -11.00200376 Ha  |g|max = 0.000805
C       0.0678914323     -0.3337741447      0.4497915317
C       1.3469938735      0.0361670560     -0.4035607386
C       2.6731075942      0.0093540900      0.4639922105
C       3.8217757776      0.8965997097     -0.1625730938
H       0.0665869009     -1.3900822385      0.6837109225
H      -0.8289300272     -0.1003539559     -0.1085391975
H       0.0573092679      0.2268431276      1.3748790177
H       1.2133031794      1.0208834077     -0.8300808310
H       1.4425497386     -0.6667376772     -1.2191486531
H       3.0210303744     -1.0115910841      0.5471777349
H       2.4597909490      0.3698540354      1.4611578068
H       3.4880913243      1.9187302433     -0.2747860828
H       4.1061728571      0.5169232000     -1.1340991768
H       4.6901743308      0.8859074144      0.4830380014
14
step 7  E = -11.00200855 Ha  |g|max = 0.000782
C       0.0675049662     -0.3343535448      0.4495635047
C       1.3458952964      0.0381037911     -0.4015666826
C       2.6734455683      0.0102741124      0.4645805386
C       3.8227422559      0.8957446652     -0.1626746815
H       0.0680153697     -1.3897501563      0.6833294261
H      -0.8292541646     -0.1034479698     -0.1101963223
H       0.0539991338      0.2263216248      1.3743897550
H       1.2128684236      1.0222596982     -0.8287506447
H       1.4429266577     -0.6650099303     -1.2185577556
H       3.0210361890     -1.0113934495      0.5472693720
H       2.4605120646      0.3706742277      1.4622137207
H       3.4898668399      1.9182746647     -0.2760281542
H       4.1048846166      0.5158805216     -1.1346933092
H       4.6914043659      0.8851450234      0.4820805987
14
step 8  E = -11.00202151 Ha  |g|max = 0.001043
C       0.0657819314     -0.3351881196      0.4489732310
C       1.3460367011      0.0416340098     -0.3977281910
C       2.6749819063      0.0128619862      0.4671384927
C       3.8243810550      0.8944064859     -0.1642684634
H       0.0726008395     -1.3896927042      0.6826957835
H      -0.8286801447     -0.1123172907     -0.1149320954
H       0.0440949801      0.2248091114      1.3718562709
H       1.2096294345      1.0275997906     -0.8238853240
H       1.4434639920     -0.6588656919     -1.2160507206
H       3.0199617728     -1.0088132598      0.5482932993
H       2.4640360581      0.3727405247      1.4643277790
H       3.4938922481      1.9169931889     -0.2785589575
H       4.1017036805      0.5113362997     -1.1362527603
H       4.6939631594      0.8812192420      0.4793507561
14
step 9  E = -11.00204304 Ha  |g|max = 0.001089
C       0.0653473628     -0.3379316967      0.4464421400
C       1.3470975638      0.0501400637     -0.3929102228
C       2.6755690869      0.0174212178      0.4699197788
C       3.8267012017      0.8919727196     -0.1670278277
H       0.0804434633     -1.3917389457      0.6826402623
H      -0.8287730052     -0.1264025294     -0.1243646946
H       0.0271753934      0.2241413542      1.3696302666
H       1.2040242025      1.0350060306     -0.8137693592
H       1.4443789473     -0.6484603797     -1.2122599965
H       3.0181495957     -1.0048408414      0.5508137462
H       2.4707738824      0.3769071296      1.4688518597
H       3.5000030154      1.9158598956     -0.2822561813
H       4.0970824602      0.5027808999     -1.1389415693
H       4.6978744981      0.8738691683      0.4741904382
14
step 10  E = -11.00205580 Ha  |g|max = 0.001760
C       0.0648615457     -0.3391182810      0.4462150391
C       1.3454607669      0.0536066491     -0.3899639439
C       2.6753488150      0.0205808794      0.4719523702
C       3.8275099832      0.8900207983     -0.1689268355
H       0.0857115587     -1.3948983723      0.6835049142
H      -0.8281577615     -0.1346067268     -0.1310574713
H       0.0172712397      0.2240231378      1.3676570689
H       1.2011388656      1.0412544249     -0.8072591425
H       1.4456692720     -0.6417347557     -1.2115202906
H       3.0167615122     -1.0032922812      0.5527774283
H       2.4752361621      0.3804611687      1.4717789271
H       3.5038203432      1.9157801178     -0.2842267069
H       4.0950025601      0.4974823116     -1.1402443892
H       4.7002128405      0.8691653484      0.4702713774
14
step 11  E = -11.00207311 Ha  |g|max = 0.000872
C       0.0617813490     -0.3436996231      0.4462425852
C       1.3434363243      0.0591619806     -0.3862800093
C       2.6745680514      0.0229698425      0.4748940193
C       3.8281837629      0.8882472544     -0.1714687972
H       0.0927368787     -1.3978122034      0.6850608854
H      -0.8258703340     -0.1452862070     -0.1395338980
H       0.0050290967      0.2244107321      1.3650883496
H       1.1979989644      1.0492624730     -0.7981041832
H       1.4476959966     -0.6327069579     -1.2120315136
H       3.0141897551     -1.0008054208      0.5556164466
H       2.4809492014      0.3860600834      1.4754241738
H       3.5093315552      1.9151314871     -0.2866879666
H       4.0927200763      0.4907780629     -1.1418488361
H       4.7030970730      0.8630133640      0.4645866945
14
step 12  E = -11.00209590 Ha  |g|max = 0.001909
C       0.0601220530     -0.3492225527      0.4444714773
C       1.3428733460      0.0644133739     -0.3805653031
C       2.6727735639      0.0272089113      0.4783288021
C       3.8285040764      0.8824955963     -0.1734813270
H       0.1003411102     -1.4007979182      0.6901049540
H      -0.8231221353     -0.1608804315     -0.1495267398
H      -0.0089059255      0.2233016095      1.3593655991
H       1.1954480582      1.0574499408     -0.7832791735
H       1.4498784199     -0.6157873711     -1.2140372121
H       3.0083015082     -0.9986510014      0.5606588247
H       2.4863218241      0.3953011258      1.4771058217
H       3.5178016064      1.9132584893     -0.2905510910
H       4.0896244488      0.4846870649     -1.1437960981
H       4.7058858602      0.8559486623      0.4561588695
14
step 13  E = -11.00211699 Ha  |g|max = 0.001437
C       0.0600703316     -0.3535867703      0.4427643374
C       1.3416357342      0.0700658758     -0.3754934267
C       2.6724314927      0.0290136013      0.4816080118
C       3.8287316250      0.8797326607     -0.1766887687
H       0.1069063385     -1.4039965112      0.6953057801
H      -0.8215087413     -0.1759101650     -0.1588544218
H      -0.0214247519      0.2220925456      1.3538234208
H       1.1930546026      1.0651279958     -0.7689400554
H       1.4520154498     -0.6000900724     -1.2167738110
H       3.0021218038     -0.9962245284      0.5659655212
H       2.4901629788      0.4044651413      1.4789731344
H       3.5258454688      1.9099301920     -0.2940392632
H       4.0864496255      0.4789435795     -1.1462859889
H       4.7093559146      0.8491625486      0.4495924212
14
step 14  E = -11.00217736 Ha  |g|max = 0.001467
C       0.0574954898     -0.3664014856      0.4376422662
C       1.3415749978      0.0850238317     -0.3658802840
C       2.6739489760      0.0376615998      0.4900054271
C       3.8372513777      0.8705764798     -0.1859230889
H       0.1231296778     -1.4116883622      0.7093987909
H      -0.8181597148     -0.2191563969     -0.1813302012
H      -0.0528665631      0.2201239756      1.3404543278
H       1.1850931395      1.0913818877     -0.7297457698
H       1.4575735641     -0.5594830385     -1.2266488827
H       2.9866182010     -0.9952807142      0.5840841412
H       2.4954821547      0.4288132721      1.4838165947
H       3.5430306275      1.9040123184     -0.3037345029
H       4.0759776792      0.4627547691     -1.1575346871
H       4.7196984157      0.8303895608      0.4363513832
14
step 15  E = -11.00220027 Ha  |g|max = 0.001785
C       0.0570778363     -0.3715225932      0.4365541410
C       1.3409850106      0.0930290705     -0.3622211311
C       2.6747729498      0.0403372291      0.4927811281
C       3.8388777308      0.8645636895     -0.1879203363
H       0.1305275890     -1.4141168696      0.7145614187
H      -0.8165485516     -0.2387080807     -0.1899184393
H      -0.0660252726      0.2190210139      1.3334695385
H       1.1811371852      1.1030158594     -0.7125969744
H       1.4600655058     -0.5420949088     -1.2310803077
H       2.9805047880     -0.9924035500      0.5933130821
H       2.4972381646      0.4383442731      1.4840363324
H       3.5498517647      1.9015675045     -0.3078557915
H       4.0717105081      0.4554246158     -1.1631386043
H       4.7256728780      0.8222711416      0.4309708617
14
step 16  E = -11.00223681 Ha  |g|max = 0.001379
C       0.0574569009     -0.3786533088      0.4322454952
C       1.3395136959      0.1041144935     -0.3567892143
C       2.6714749098      0.0449596804      0.4965894022
C       3.8429991559      0.8561541937     -0.1925400549
H       0.1436983434     -1.4173524297      0.7215118717
H      -0.8126494026     -0.2703451096     -0.2008280561
H      -0.0863315264      0.2180837989      1.3227804932
H       1.1740825471      1.1223726557     -0.6861173406
H       1.4634289859     -0.5134358097     -1.2366208452
H       2.9727907706     -0.9867655286      0.6096867505
H       2.4995382871      0.4517618005      1.4817921910
H       3.5603913050      1.8940757509     -0.3132305923
H       4.0647173417      0.4444675229     -1.1687136441
H       4.7347368701      0.8092917815      0.4211875258
14
step 17  E = -11.00225985 Ha  |g|max = 0.001434
C       0.0580854606     -0.3833061563      0.4306392051
C       1.3372368611      0.1123041777     -0.3546989581
C       2.6711738370      0.0486270713      0.4967598469
C       3.8454189432      0.8508463447     -0.1945908638
H       0.1533377331     -1.4188223777      0.7250723153
H      -0.8107206021     -0.2891081764     -0.2074120954
H      -0.0981017811      0.2176085035      1.3159720069
H       1.1697862267      1.1325225402     -0.6703560251
H       1.4648558492     -0.4956196453     -1.2398918260
H       2.9689247068     -0.9840407464      0.6199298750
H       2.4998878929      0.4606090063      1.4820205205
H       3.5667162717      1.8883422273     -0.3158242096
H       4.0606907377      0.4377146084     -1.1704556748
H       4.7385561047      0.8010527731      0.4137893037
14
step 18  E = -11.00228452 Ha  |g|max = 0.001539
C       0.0570782520     -0.3869456279      0.4287575934
C       1.3362288598      0.1194146071     -0.3514957642
C       2.6714012341      0.0521965505      0.5010243218
C       3.8459750231      0.8448648078     -0.1975514965
H       0.1681991719     -1.4210822402      0.7284734935
H      -0.8085538908     -0.3078987762     -0.2139130153
H      -0.1092694310      0.2170943115      1.3088740850
H       1.1641690587      1.1437141947     -0.6562804453
H       1.4640961969     -0.4760679615     -1.2449383094
H       2.9651169333     -0.9808415636      0.6293185882
H       2.4989905787      0.4709199053      1.4816258237
H       3.5729882582      1.8831734543     -0.3174972158
H       4.0576126191      0.4292414281     -1.1711383548
H       4.7418154326      0.7909477452      0.4056935349
14
step 19  E = -11.00230676 Ha  |g|max = 0.001278
C       0.0583304565     -0.3921591247      0.4266457434
C       1.3353986973      0.1270528379     -0.3478973481
C       2.6693910768      0.0544338681      0.5041453872
C       3.8468392963      0.8398105959     -0.1989400566
H       0.1831259377     -1.4218189315      0.7313898830
H      -0.8072060562     -0.3249754297     -0.2203687798
H      -0.1195225537      0.2168881082      1.3032097565
H       1.1591013326      1.1531604195     -0.6436448481
H       1.4626961495     -0.4579262369     -1.2500580016
H       2.9614654323     -0.9778575539      0.6376369958
H       2.4979484943      0.4814351294      1.4824031900
H       3.5785392264      1.8795169049     -0.3190818711
H       4.0548823948      0.4201408075     -1.1731861961
H       4.7448584607      0.7810300732      0.3986984479
14
step 20  E = -11.00232171 Ha  |g|max = 0.000940
C       0.0597106529     -0.3938248936      0.4252985578
C       1.3338959191      0.1313328302     -0.3479935254
C       2.6668230631      0.0567646175      0.5056982362
C       3.8472688565      0.8365446035     -0.2004164336
H       0.1928939963     -1.4221159091      0.7334463231
H      -0.8052907324     -0.3353194955     -0.2236751624
H      -0.1251879990      0.2154069478      1.2995589451
H       1.1565725201      1.1580519006     -0.6360913001
H       1.4613351348     -0.4465772059     -1.2519690575
H       2.9585864821     -0.9767235993      0.6422841368
H       2.4974690666      0.4879516098      1.4833849510
H       3.5818165173      1.8784203873     -0.3202795004
H       4.0524802674      0.4142074256     -1.1747650497
H       4.7474746258      0.7746126216      0.3964708670
14
step 21  E = -11.00233826 Ha  |g|max = 0.001363
C       0.0606567231     -0.3963115545      0.4231772060
C       1.3316477072      0.1368437381     -0.3464988392
C       2.6649384114      0.0594936219      0.5071230129
C       3.8486401267      0.8338375616     -0.2017151624
H       0.2047337627     -1.4210353722      0.7358959330
H      -0.8009670025     -0.3475616384     -0.2262068882
H      -0.1307033733      0.2123762746      1.2958297044
H       1.1540415990      1.1649790311     -0.6284444178
H       1.4597229522     -0.4354890126     -1.2558346465
H       2.9526222730     -0.9738386403      0.6468241741
H       2.4969767124      0.4949071686      1.4836532503
H       3.5866039630      1.8762296080     -0.3222071773
H       4.0480261675      0.4075111629     -1.1761254085
H       4.7489083706      0.7667903050      0.3954808996
14
step 22  E = -11.00236245 Ha  |g|max = 0.001771
C       0.0641792466     -0.4006322879      0.4231925995
C       1.3307786770      0.1446747054     -0.3461245764
C       2.6628813139      0.0657570242      0.5085532101
C       3.8501713575      0.8283477093     -0.2026926899
H       0.2220204737     -1.4197286727      0.7394289607
H      -0.7968147267     -0.3657033630     -0.2315939332
H      -0.1383741081      0.2077648179      1.2912329982
H       1.1502208686      1.1764381135     -0.6180597133
H       1.4573166005     -0.4195797262     -1.2605354948
H       2.9423500892     -0.9696057543      0.6529790677
H       2.4963579688      0.5042572165      1.4828113394
H       3.5947035872      1.8726927455     -0.3255128388
H       4.0407645456      0.3986095752     -1.1769464107
H       4.7492925270      0.7554407410      0.3942186264
14
step 23  E = -11.00238347 Ha  |g|max = 0.000858
C       0.0673709739     -0.4036901431      0.4207137393
C       1.3304732990      0.1543217584     -0.3461846761
C       2.6604561651      0.0707213300      0.5091109711
C       3.8507994802      0.8235165948     -0.2037523081
H       0.2389203750     -1.4212527664      0.7435847934
H      -0.7924694006     -0.3838450876     -0.2362737493
H      -0.1458363982      0.2044622300      1.2888902344
H       1.1463074391      1.1869487925     -0.6083218614
H       1.4554605211     -0.4042908234     -1.2644003926
H       2.9316693850     -0.9650368545      0.6585936599
H       2.4955155058      0.5135486815      1.4820044757
H       3.6037249739      1.8685155068     -0.3288497144
H       4.0340153801      0.3903739236     -1.1771359434
H       4.7494407455      0.7444402676      0.3929714425
14
step 24  E = -11.00239868 Ha  |g|max = 0.001202
C       0.0691858140     -0.4065153270      0.4203617112
C       1.3271462047      0.1611173679     -0.3458704706
C       2.6559708753      0.0728693529      0.5105675818
C       3.8515785694      0.8204608755     -0.2043910127
H       0.2485157644     -1.4225481314      0.7450972111
H      -0.7887799266     -0.3960872305     -0.2376298648
H      -0.1497403523      0.2029600640      1.2874411966
H       1.1430786079      1.1941739073     -0.6041934422
H       1.4565820974     -0.3940476410     -1.2652583634
H       2.9249585372     -0.9635831798      0.6610704675
H       2.4942149969      0.5198521216      1.4808379808
H       3.6110752769      1.8668531575     -0.3310065155
H       4.0323170060      0.3855440627     -1.1773507017
H       4.7497449818      0.7376843441      0.3912746167
14
step 25  E = -11.00240923 Ha  |g|max = 0.000642
C       0.0700257618     -0.4084539039      0.4213775849
C       1.3252937008      0.1651534435     -0.3452642124
C       2.6540516039      0.0751557770      0.5101949373
C       3.8508407681      0.8177419544     -0.2046015386
H       0.2550890028     -1.4231584722      0.7458416570
H      -0.7867435993     -0.4048222014     -0.2384337695
H      -0.1522272195      0.2014519134      1.2858098665
H       1.1402246859      1.1997344845     -0.6017761019
H       1.4577363580     -0.3866981714     -1.2656925661
H       2.9199234845     -0.9627508105      0.6625969130
H       2.4928134564      0.5244921028      1.4807242078
H       3.6165242099      1.8658919301     -0.3324498179
H       4.0318627602      0.3821646028     -1.1775878677
H       4.7504334827      0.7328313215      0.3902109152
14
step 26  E = -11.00241909 Ha  |g|max = 0.000891
C       0.0700657761     -0.4103049238      0.4210061564
C       1.3252080740      0.1689002237     -0.3440167463
C       2.6545635066      0.0779488269      0.5106209503
C       3.8519750277      0.8162531387     -0.2057286531
H       0.2603988458     -1.4233086224      0.7465829098
H      -0.7867774584     -0.4121119186     -0.2381620993
H      -0.1544466152      0.1998723898      1.2850433001
H       1.1362273046      1.2030670130     -0.5999197063
H       1.4588290174     -0.3808560385     -1.2665447917
H       2.9144593414     -0.9605732593      0.6630627588
H       2.4909069523      0.5277471123      1.4804682259
H       3.6212193729      1.8644633762     -0.3331972611
H       4.0327921353      0.3794189159     -1.1774759904
H       4.7504271709      0.7282179075      0.3892110180
14
step 27  E = -11.00242576 Ha  |g|max = 0.000891
C       0.0711452998     -0.4108570798      0.4205370774
C       1.3246569121      0.1708645602     -0.3441690423
C       2.6535298867      0.0806068496      0.5110129474
C       3.8539222356      0.8152711385     -0.2061841136
H       0.2640046501     -1.4236154142      0.7473362426
H      -0.7876643206     -0.4169643735     -0.2379441738
H      -0.1561793090      0.1983484995      1.2845542060
H       1.1330221201      1.2047495445     -0.5983473857
H       1.4595148864     -0.3765751237     -1.2665868473
H       2.9108434774     -0.9591091654      0.6632947199
H       2.4899284184      0.5298815634      1.4803106432
H       3.6243702928      1.8639387271     -0.3337468614
H       4.0338683743      0.3773138278     -1.1779437611
H       4.7508855210      0.7248806965      0.3888263340
14
step 28  E = -11.00243183 Ha  |g|max = 0.000592
C       0.0715270939     -0.4120510278      0.4198200870
C       1.3234192919      0.1732374446     -0.3445364791
C       2.6519909353      0.0826570181      0.5101632213
C       3.8548874631      0.8142241166     -0.2065655783
H       0.2674336081     -1.4235002800      0.7481064337
H      -0.7881232778     -0.4212491235     -0.2371182474
H      -0.1578637492      0.1965587275      1.2840416976
H       1.1295642875      1.2060229368     -0.5966156397
H       1.4602007509     -0.3729338597     -1.2671573032
H       2.9075856837     -0.9571209553      0.6635278838
H       2.4893878075      0.5323921580      1.4808415347
H       3.6277095465      1.8637528623     -0.3344052451
H       4.0352166427      0.3752192159     -1.1786141943
H       4.7529123514      0.7215251142      0.3894617412
14
step 29  E = -11.00243659 Ha  |g|max = 0.000464
C       0.0708641367     -0.4134633822      0.4199485956
C       1.3216578128      0.1744511843     -0.3447813233
C       2.6508272081      0.0845813575      0.5102233068
C       3.8562702573      0.8130814656     -0.2065366532
H       0.2703126184     -1.4233559701      0.7486764894
H      -0.7881353589     -0.4244025946     -0.2362492412
H      -0.1590680774      0.1947261674      1.2832740013
H       1.1261944586      1.2082094058     -0.5954096458
H       1.4605594965     -0.3705049982     -1.2685877124
H       2.9051958242     -0.9551915643      0.6636772389
H       2.4895453174      0.5344521852      1.4803417520
H       3.6310446139      1.8634335200     -0.3350914590
H       4.0363157547      0.3738764138     -1.1785064486
H       4.7542643624      0.7188412290      0.3899709609
14
step 30  E = -11.00244104 Ha  |g|max = 0.000629
C       0.0711694381     -0.4146931235      0.4201292952
C       1.3200432973      0.1759066228     -0.3453849012
C       2.6502979880      0.0863114980      0.5094694330
C       3.8576085318      0.8125941695     -0.2058212024
H       0.2728140922     -1.4243426306      0.7493613141
H      -0.7889764212     -0.4270219142     -0.2361925974
H      -0.1602332737      0.1934891769      1.2833326045
H       1.1228212050      1.2100479757     -0.5943994132
H       1.4601205436     -0.3684663929     -1.2700008989
H       2.9034988509     -0.9536570641      0.6639987403
H       2.4900549802      0.5368170354      1.4796092040
H       3.6350167748      1.8622281037     -0.3357142157
H       4.0371938531      0.3729532315     -1.1775989132
H       4.7544185506      0.7165677844      0.3901613784
14
step 31  E = -11.00244406 Ha  |g|max = 0.000411
C       0.0709710118     -0.4156318075      0.4199431500
C       1.3197715848      0.1771726965     -0.3460303056
C       2.6497478267      0.0874708710      0.5087477979
C       3.8579685870      0.8117515634     -0.2059519793
H       0.2744347202     -1.4253304062      0.7497809873
H      -0.7892562086     -0.4288671414     -0.2359858516
H      -0.1609652220      0.1927249131      1.2836469420
H       1.1203608627      1.2109401584     -0.5937463716
H       1.4592001514     -0.3667749545     -1.2706488875
H       2.9025316643     -0.9526493340      0.6642705317
H       2.4904432126      0.5387048532      1.4788335069
H       3.6380740146      1.8619178425     -0.3361199252
H       4.0378184543      0.3723567480     -1.1766245818
H       4.7547477387      0.7149485015      0.3908347968
14
step 32  E = -11.00244895 Ha  |g|max = 0.000660
C       0.0715287237     -0.4169145094      0.4201242153
C       1.3188460054      0.1785171289     -0.3458361098
C       2.6485905710      0.0886470158      0.5081966533
C       3.8589073751      0.8108765998     -0.2055304266
H       0.2763566911     -1.4263720790      0.7496651271
H      -0.7890709349     -0.4321161565     -0.2354541624
H      -0.1616250989      0.1908174679      1.2836133556
H       1.1163769035      1.2119632906     -0.5930866770
H       1.4563596787     -0.3633723111     -1.2715058794
H       2.9012273544     -0.9507805948      0.6646843382
H       2.4908323428      0.5423514659      1.4765204811
H       3.6434356891      1.8628690891     -0.3366982912
H       4.0392620716      0.3702503935     -1.1765985195
H       4.7548210000      0.7119977395      0.3928556943
14
step 33  E = -11.00245290 Ha  |g|max = 0.000393
C       0.0719366350     -0.4181716166      0.4203552170
C       1.3168737397      0.1796982012     -0.3455099225
C       2.6484862657      0.0904373374      0.5070993018
C       3.8603122012      0.8108801852     -0.2060732573
H       0.2778338991     -1.4270379919      0.7492739310
H      -0.7884629330     -0.4349098831     -0.2349155161
H      -0.1619968284      0.1890143177      1.2836400921
H       1.1133052768      1.2126301236     -0.5923408007
H       1.4537199294     -0.3605714509     -1.2724587101
H       2.9002048650     -0.9497277636      0.6652669022
H       2.4906390359      0.5458092966      1.4750668425
H       3.6480936221      1.8630204623     -0.3369492608
H       4.0405801375      0.3684408475     -1.1762393525
H       4.7543225011      0.7092224982      0.3947343304
14
step 34  E = -11.00245423 Ha  |g|max = 0.000374
C       0.0715521701     -0.4185548262      0.4206283306
C       1.3167938325      0.1799040899     -0.3458650109
C       2.6484681538      0.0912577627      0.5066005842
C       3.8610294190      0.8105936250     -0.2064989522
H       0.2783690148     -1.4275118186      0.7491426279
H      -0.7882413119     -0.4356919544     -0.2348712884
H      -0.1620818780      0.1884589977      1.2839509046
H       1.1125159488      1.2130715254     -0.5918716059
H       1.4528524445     -0.3598555646     -1.2727170446
H       2.8998623455     -0.9491141523      0.6654989740
H       2.4903094746      0.5468595098      1.4747510525
H       3.6493615928      1.8629892753     -0.3370207011
H       4.0411634502      0.3680614435     -1.1759963185
H       4.7538936808      0.7082666523      0.3952182502
14
step 35  E = -11.00245613 Ha  |g|max = 0.000347
C       0.0717338930     -0.4191800966      0.4209745176
C       1.3164735414      0.1804555221     -0.3460896167
C       2.6483946014      0.0924113470      0.5060689311
C       3.8615990812      0.8103018058     -0.2067266430
H       0.2791877490     -1.4284837698      0.7489298241
H      -0.7883687724     -0.4367003010     -0.2352148195
H      -0.1623016926      0.1876977339      1.2850761284
H       1.1116723357      1.2138790417     -0.5907891061
H       1.4516543150     -0.3593574408     -1.2736299601
H       2.8992447888     -0.9473257734      0.6658835379
H       2.4894705330      0.5483318733      1.4739836791
H       3.6511044981      1.8626486210     -0.3372361000
H       4.0425834819      0.3674595834     -1.1762509365
H       4.7533999662      0.7065964122      0.3959703841
14
step 36  E = -11.00245705 Ha  |g|max = 0.000323
C       0.0719040791     -0.4192818513      0.4210166380
C       1.3159642115      0.1805616872     -0.3461659985
C       2.6477319836      0.0931217298      0.5059690631
C       3.8616152097      0.8099706777     -0.2068842957
H       0.2795426725     -1.4287667758      0.7487378540
H      -0.7881534419     -0.4370103938     -0.2350427293
H      -0.1623266719      0.1869122097      1.2853923525
H       1.1114687021      1.2142379118     -0.5901549403
H       1.4512065297     -0.3590875498     -1.2739030983
H       2.8990678148     -0.9466226566      0.6661934331
H       2.4889635983      0.5490624640      1.4733367694
H       3.6518145697      1.8626246445     -0.3374921803
H       4.0434764722      0.3672796550     -1.1764802596
H       4.7535725796      0.7057327959      0.3964272286
14
step 37  E = -11.00245764 Ha  |g|max = 0.000191
C       0.0719031834     -0.4195679535      0.4210779826
C       1.3156204846      0.1807309913     -0.3463384591
C       2.6472858353      0.0931741184      0.5056001151
C       3.8618313665      0.8098048038     -0.2068692304
H       0.2797705473     -1.4287433713      0.7484908691
H      -0.7879292003     -0.4371036381     -0.2347403084
H      -0.1622910898      0.1861951748      1.2855249545
H       1.1113702779      1.2144195491     -0.5897192616
H       1.4509616378     -0.3588026865     -1.2739095263
H       2.8989075943     -0.9461204797      0.6665013528
H       2.4884739075      0.5498204998      1.4730778964
H       3.6522860785      1.8625562434     -0.3377555734
H       4.0441014004      0.3672190684     -1.1765719521
H       4.7535562766      0.7051522167      0.3965809938
14
step 38  E = -11.00245820 Ha  |g|max = 0.000246
C       0.0720588190     -0.4198059334      0.4210262706
C       1.3153880714      0.1808561877     -0.3463635625
C       2.6474347208      0.0934097221      0.5054170571
C       3.8620597593      0.8096938455     -0.2069937567
H       0.2801144913     -1.4289292008      0.7481216694
H      -0.7881279812     -0.4370230912     -0.2343949563
H      -0.1621919386      0.1853347577      1.2857903287
H       1.1111726871      1.2147385234     -0.5894483140
H       1.4507857667     -0.3583784158     -1.2739188682
H       2.8986139000     -0.9461287220      0.6670633139
H       2.4877562490      0.5508020031      1.4725034392
H       3.6528201727      1.8622200606     -0.3381043426
H       4.0446639710      0.3673196011     -1.1762923885
H       4.7532995982      0.7046251752      0.3965439914
14
step 39  E = -11.00245871 Ha  |g|max = 0.000142
C       0.0720506103     -0.4199645413      0.4209526353
C       1.3156442976      0.1812228437     -0.3462423874
C       2.6473869917      0.0934931885      0.5054749205
C       3.8620587799      0.8095366417     -0.2069814140
H       0.2805095044     -1.4293857548      0.7476972715
H      -0.7884883309     -0.4368991478     -0.2340776817
H      -0.1620293807      0.1845880460      1.2862016844
H       1.1109230818      1.2149555767     -0.5892772853
H       1.4506536393     -0.3579990023     -1.2741270267
H       2.8982514698     -0.9460898413      0.6676853546
H       2.4871608745      0.5517287946      1.4717415488
H       3.6532838393      1.8620943769     -0.3384432337
H       4.0451570246      0.3672303339     -1.1762953786
H       4.7532858704      0.7042229706      0.3966409070
14
step 40  E = -11.00245909 Ha  |g|max = 0.000224
C       0.0722178482     -0.4201978835      0.4209850276
C       1.3155965076      0.1812520962     -0.3464314159
C       2.6472428453      0.0934040663      0.5054579438
C       3.8621877442      0.8092718756     -0.2069539966
H       0.2807790066     -1.4297187871      0.7471407212
H      -0.7888237067     -0.4367680824     -0.2338572998
H      -0.1618174615      0.1840677849      1.2866573454
H       1.1107467041      1.2151471713     -0.5891899671
H       1.4506146158     -0.3575546137     -1.2742305123
H       2.8978769387     -0.9458984455      0.6682856598
H       2.4868371236      0.5525332610      1.4713686189
H       3.6535537993      1.8621962636     -0.3386450988
H       4.0454055830      0.3669471145     -1.1764700925
H       4.7534307102      0.7040526359      0.3968330134
14
step 41  E = -11.00246000 Ha  |g|max = 0.000275
C       0.0722030173     -0.4205881560      0.4209362652
C       1.3149080696      0.1814529996     -0.3467407626
C       2.6467177735      0.0939714447      0.5052679320
C       3.8627249773      0.8088895139     -0.2072984353
H       0.2814065571     -1.4306742191      0.7453997728
H      -0.7892034806     -0.4364123755     -0.2329542724
H      -0.1609305470      0.1825961353      1.2877342466
H       1.1103992873      1.2154052984     -0.5889545939
H       1.4506615365     -0.3565438755     -1.2749651758
H       2.8968752878     -0.9456430397      0.6701041158
H       2.4862798097      0.5545218504      1.4706607308
H       3.6542038141      1.8619115853     -0.3389090976
H       4.0457517556      0.3660242667     -1.1767050909
H       4.7538503617      0.7038229458      0.3973744068
14
step 42  E = -11.00246106 Ha  |g|max = 0.000466
C       0.0722126645     -0.4212498629      0.4212278522
C       1.3146313964      0.1819033773     -0.3470379908
C       2.6465110714      0.0947636111      0.5052012202
C       3.8632167735      0.8083157842     -0.2073537996
H       0.2819929635     -1.4316840779      0.7430046915
H      -0.7898008845     -0.4359471026     -0.2318958605
H      -0.1595135943      0.1805169032      1.2888426696
H       1.1098067823      1.2157920149     -0.5886937100
H       1.4506140192     -0.3554671205     -1.2760758011
H       2.8954135970     -0.9445872025      0.6722954116
H       2.4857943686      0.5568503998      1.4697205743
H       3.6550760318      1.8610236019     -0.3392145294
H       4.0460794322      0.3648890166     -1.1766296881
H       4.7538135481      0.7036149199      0.3975591276
14
step 43  E = -11.00246166 Ha  |g|max = 0.000208
C       0.0724756349     -0.4211736889      0.4208341973
C       1.3147805396      0.1817592616     -0.3470770151
C       2.6464870361      0.0948473788      0.5052636767
C       3.8630239118      0.8081206828     -0.2073864339
H       0.2819515634     -1.4318270571      0.7430423611
H      -0.7898492387     -0.4359174796     -0.2318960877
H      -0.1594736527      0.1805311781      1.2889986459
H       1.1097174457      1.2158872787     -0.5887006349
H       1.4505346322     -0.3554324207     -1.2758991092
H       2.8954129371     -0.9444656554      0.6722516195
H       2.4858411353      0.5568641910      1.4697488698
H       3.6550610827      1.8610644789     -0.3392769391
H       4.0460744606      0.3649135225     -1.1764632067
H       4.7538106805      0.7035625884      0.3975102275
14
step 44  E = -11.00246201 Ha  |g|max = 0.000158
C       0.0727315472     -0.4211901825      0.4207145868
C       1.3150812521      0.1820514901     -0.3471385091
C       2.6463902349      0.0948990599      0.5054000215
C       3.8628141315      0.8081435065     -0.2072275647
H       0.2818199262     -1.4319121429      0.7429772333
H      -0.7899119989     -0.4358147005     -0.2319587989
H      -0.1592097480      0.1803187957      1.2889352904
H       1.1095747336      1.2158359742     -0.5886743223
H       1.4504438724     -0.3555125890     -1.2757532287
H       2.8954223899     -0.9442073130      0.6721773421
H       2.4859376608      0.5569503391      1.4698862502
H       3.6550413196      1.8609327537     -0.3394186971
H       4.0460557818      0.3648222593     -1.1762835034
H       4.7536570622      0.7034169993      0.3973140807
14
step 45  E = -11.00246237 Ha  |g|max = 0.000129
C       0.0728179868     -0.4212566953      0.4205224117
C       1.3151006494      0.1821301072     -0.3470429810
C       2.6463683177      0.0953168872      0.5056555995
C       3.8626589521      0.8081055896     -0.2071839976
H       0.2816490170     -1.4319949647      0.7427292544
H      -0.7897062459     -0.4355717584     -0.2319372801
H      -0.1586538804      0.1799070932      1.2887644496
H       1.1093335560      1.2160495655     -0.5887212059
H       1.4504334200     -0.3556559078     -1.2756436547
H       2.8954634236     -0.9440247991      0.6721099690
H       2.4860603464      0.5571193129      1.4702031476
H       3.6549465587      1.8608384721     -0.3396706587
H       4.0459182713      0.3646102868     -1.1759366569
H       4.7534577857      0.7031610414      0.3971018031
14
step 46  E = -11.00246265 Ha  |g|max = 0.000196
C       0.0729434642     -0.4214874882      0.4203961158
C       1.3148957499      0.1822260221     -0.3470507214
C       2.6463136011      0.0953880165      0.5058446169
C       3.8625950068      0.8082262700     -0.2072297020
H       0.2815433802     -1.4321415181      0.7423491082
H      -0.7895710690     -0.4352639532     -0.2320299093
H      -0.1581481415      0.1796581667      1.2888457554
H       1.1091274644      1.2161548178     -0.5887766527
H       1.4505637595     -0.3557035562     -1.2754961931
H       2.8954528009     -0.9437171965      0.6720970958
H       2.4861406246      0.5573749082      1.4706454826
H       3.6548607240      1.8608573085     -0.3399384675
H       4.0456878276      0.3642270950     -1.1758039817
H       4.7534429579      0.7029353162      0.3970976761
14
step 47  E = -11.00246308 Ha  |g|max = 0.000158
C       0.0729764181     -0.4216268506      0.4203468656
C       1.3148520567      0.1823786717     -0.3470311461
C       2.6459373046      0.0959536181      0.5062049903
C       3.8625461259      0.8082228681     -0.2072264956
H       0.2814863716     -1.4327799922      0.7415337809
H      -0.7894595739     -0.4346468836     -0.2322950629
H      -0.1572551512      0.1792167340      1.2891532809
H       1.1087335354      1.2162032492     -0.5888773277
H       1.4509353335     -0.3556776890     -1.2752358315
H       2.8954493286     -0.9433700026      0.6722084352
H       2.4862891094      0.5577328799      1.4712078088
H       3.6547377130      1.8610831721     -0.3404767592
H       4.0451555932      0.3634009237     -1.1757422321
H       4.7534639691      0.7026434634      0.3971799647
14
step 48  E = -11.00246363 Ha  |g|max = 0.000203
C       0.0730165479     -0.4218302347      0.4202440278
C       1.3150696850      0.1826010808     -0.3466338903
C       2.6460490265      0.0965691330      0.5066126360
C       3.8622604449      0.8081835608     -0.2072815476
H       0.2814658682     -1.4335470492      0.7402320552
H      -0.7895222374     -0.4338102476     -0.2324621955
H      -0.1564490111      0.1786538139      1.2898584842
H       1.1082281723      1.2160702959     -0.5890346138
H       1.4516152775     -0.3555589742     -1.2751185424
H       2.8952036324     -0.9427021628      0.6725388266
H       2.4863070726      0.5580645434      1.4714269076
H       3.6549695793      1.8609148588     -0.3411257327
H       4.0443415755      0.3625082190     -1.1754822853
H       4.7532924769      0.7026172597      0.3971762093
14
step 49  E = -11.00246416 Ha  |g|max = 0.000201
C       0.0731473504     -0.4219714273      0.4203091500
C       1.3152321281      0.1825288442     -0.3466007547
C       2.6460573403      0.0969571852      0.5068900165
C       3.8623298547      0.8080818830     -0.2073183174
H       0.2813766529     -1.4341024954      0.7387870870
H      -0.7895836078     -0.4329255512     -0.2324237901
H      -0.1557989972      0.1778050213      1.2904462323
H       1.1077710108      1.2159780532     -0.5891541747
H       1.4523492077     -0.3552374891     -1.2747281487
H       2.8949419792     -0.9420970934      0.6729996858
H       2.4862449291      0.5585439010      1.4717086731
H       3.6553113591      1.8607110668     -0.3417975496
H       4.0435158490      0.3617004369     -1.1751642624
H       4.7529530296      0.7027616930      0.3969965640
14
step 50  E = -11.00246505 Ha  |g|max = 0.000266
C       0.0734358857     -0.4221283094      0.4199433826
C       1.3151161610      0.1828197457     -0.3463623066
C       2.6456699254      0.0977346229      0.5073089938
C       3.8621216651      0.8078979343     -0.2075035238
H       0.2810752823     -1.4348861334      0.7362356860
H      -0.7894773270     -0.4312920782     -0.2317667223
H      -0.1549243077      0.1758793067      1.2914186634
H       1.1072219048      1.2156753885     -0.5892167266
H       1.4537021791     -0.3548842069     -1.2743168851
H       2.8946440141     -0.9416361856      0.6740989378
H       2.4860128996      0.5596417198      1.4721697313
H       3.6560053666      1.8604484211     -0.3430207159
H       4.0423462659      0.3603310320     -1.1748286819
H       4.7528981253      0.7031326453      0.3967907098
14
step 51  E = -11.00246593 Ha  |g|max = 0.000236
C       0.0737379611     -0.4223450573      0.4198238507
C       1.3152786780      0.1830415163     -0.3462314176
C       2.6453241553      0.0981306978      0.5083486207
C       3.8617309126      0.8076941811     -0.2075231199
H       0.2807374199     -1.4358303374      0.7336842850
H      -0.7898348214     -0.4295469331     -0.2312149409
H      -0.1541120139      0.1736313045      1.2924357495
H       1.1067680796      1.2159463181     -0.5892886423
H       1.4549278995     -0.3547280302     -1.2741161140
H       2.8942576881     -0.9409537578      0.6753118250
H       2.4857016923      0.5609285063      1.4723720477
H       3.6565953840      1.8604263122     -0.3443694688
H       4.0415618420      0.3588990523     -1.1748358458
H       4.7531731148      0.7034399966      0.3965538539
14
step 52  E = -11.00246725 Ha  |g|max = 0.000431
C       0.0737307894     -0.4230226099      0.4191196621
C       1.3158261979      0.1835449960     -0.3460993182
C       2.6451018231      0.0990752625      0.5094070451
C       3.8617820577      0.8071411868     -0.2076557104
H       0.2802447235     -1.4377821890      0.7298087489
H      -0.7907568060     -0.4267260680     -0.2304595631
H      -0.1528228625      0.1701542638      1.2945929421
H       1.1064000146      1.2166630864     -0.5893043325
H       1.4565174842     -0.3546198451     -1.2738497541
H       2.8936110597     -0.9400554125      0.6775534094
H       2.4849994451      0.5633363553      1.4730540022
H       3.6571758989      1.8603176936     -0.3465049000
H       4.0406720714      0.3569103562     -1.1744669747
H       4.7533660152      0.7037964753      0.3957556565
14
step 53  E = -11.00246892 Ha  |g|max = 0.000353
C       0.0738526771     -0.4236984672      0.4186547865
C       1.3158806740      0.1842683914     -0.3460799403
C       2.6451565002      0.1005976728      0.5106642780
C       3.8617880803      0.8071376995     -0.2082214387
H       0.2795678365     -1.4402300179      0.7250765325
H      -0.7921441775     -0.4234008362     -0.2298481687
H      -0.1510490832      0.1657807296      1.2969970617
H       1.1063666326      1.2171802355     -0.5891848935
H       1.4581399662     -0.3543427131     -1.2733743807
H       2.8927708839     -0.9389108939      0.6804673992
H       2.4841643897      0.5662447301      1.4736886531
H       3.6577077351      1.8594212232     -0.3489081634
H       4.0398784543      0.3546537475     -1.1737773641
H       4.7537672464      0.7040317849      0.3947968326
14
step 54  E = -11.00247310 Ha  |g|max = 0.000430
C       0.0734617253     -0.4256577327      0.4172948621
C       1.3156449008      0.1848928500     -0.3443069911
C       2.6443107462      0.1046489847      0.5131956300
C       3.8622126996      0.8060380528     -0.2086418967
H       0.2773154915     -1.4457777007      0.7121116908
H      -0.7947109088     -0.4153141261     -0.2280161878
H      -0.1455503714      0.1543115306      1.3026279010
H       1.1071464018      1.2179666520     -0.5888282024
H       1.4610636781     -0.3527871184     -1.2717025360
H       2.8904041723     -0.9340584676      0.6883152701
H       2.4826056436      0.5736510143      1.4740209735
H       3.6580713251      1.8575013183     -0.3548918540
H       4.0387976848      0.3489469323     -1.1725068303
H       4.7550743740      0.7043704066      0.3922800989
14
step 55  E = -11.00247500 Ha  |g|max = 0.000321
C       0.0733878244     -0.4267653001      0.4165275916
C       1.3158622284      0.1855556107     -0.3439190939
C       2.6438201517      0.1060681650      0.5144068779
C       3.8619291446      0.8052575185     -0.2093493390
H       0.2760862651     -1.4484103634      0.7059262004
H      -0.7957159414     -0.4116619970     -0.2271773391
H      -0.1430107713      0.1492987225      1.3055355845
H       1.1073701948      1.2179896812     -0.5884845889
H       1.4620741763     -0.3519933611     -1.2707945563
H       2.8894021962     -0.9316731390      0.6920151970
H       2.4820558721      0.5774061195      1.4741497198
H       3.6582219077      1.8567913766     -0.3575348739
H       4.0384058962      0.3463466554     -1.1719397169
H       4.7559582999      0.7045225859      0.3915906071
14
step 56  E = -11.00247807 Ha  |g|max = 0.000548
C       0.0741530745     -0.4275115871      0.4157064830
C       1.3163682857      0.1861467480     -0.3433945057
C       2.6429751336      0.1084105749      0.5162986188
C       3.8618621719      0.8041577595     -0.2098612405
H       0.2738108162     -1.4531441112      0.6960220467
H      -0.7970006997     -0.4062695055     -0.2261196314
H      -0.1390695403      0.1419047993      1.3100318451
H       1.1068763955      1.2183691107     -0.5876843643
H       1.4629431217     -0.3509737456     -1.2698974380
H       2.8883627788     -0.9290684520      0.6980342578
H       2.4817384388      0.5840904687      1.4741098440
H       3.6585309608      1.8556090863     -0.3612319384
H       4.0380099852      0.3420829347     -1.1719356509
H       4.7562863385      0.7049276965      0.3908744765
14
step 57  E = -11.00248383 Ha  |g|max = 0.000423
C       0.0746305619     -0.4302230454      0.4145568555
C       1.3166001119      0.1874413600     -0.3418422255
C       2.6429447183      0.1123688967      0.5199803583
C       3.8622239587      0.8021247995     -0.2117057775
H       0.2693393649     -1.4608737508      0.6772589800
H      -0.7981803310     -0.3959784794     -0.2236705670
H      -0.1315481672      0.1282253563      1.3179108309
H       1.1052494267      1.2195318190     -0.5860718279
H       1.4644039455     -0.3496758983     -1.2694371245
H       2.8865183679     -0.9244170162      0.7094262853
H       2.4814020014      0.5970230665      1.4736248106
H       3.6593554842      1.8527948888     -0.3677427849
H       4.0371107862      0.3346117074     -1.1711701257
H       4.7557966885      0.7057771479      0.3898361078
14
step 58  E = -11.00248570 Ha  |g|max = 0.000419
C       0.0745116658     -0.4309666884      0.4144489485
C       1.3167125116      0.1872005579     -0.3416670311
C       2.6430792036      0.1136572183      0.5205489283
C       3.8619831570      0.8013861203     -0.2122535590
H       0.2681507329     -1.4630797533      0.6718973055
H      -0.7984168475     -0.3924274444     -0.2228489230
H      -0.1291969145      0.1236347061      1.3197141346
H       1.1044314667      1.2198764440     -0.5853936280
H       1.4648601827     -0.3489464189     -1.2689394638
H       2.8859352114     -0.9227375284      0.7130315678
H       2.4815555967      0.6008261017      1.4730126976
H       3.6597417083      1.8517884705     -0.3697309492
H       4.0368319017      0.3325338005     -1.1706460621
H       4.7556672367      0.7059849850      0.3897801322
14
step 59  E = -11.00248949 Ha  |g|max = 0.000309
C       0.0751301531     -0.4332629054      0.4130676656
C       1.3164492219      0.1875902557     -0.3404491671
C       2.6424480068      0.1162563518      0.5213738452
C       3.8621295411      0.7999431816     -0.2128201926
H       0.2656880979     -1.4678340044      0.6608243454
H      -0.7993131279     -0.3838033210     -0.2210963090
H      -0.1241714605      0.1134835606      1.3239773984
H       1.1023237404      1.2194986281     -0.5833998921
H       1.4660712671     -0.3474384111     -1.2682739427
H       2.8847249573     -0.9185347039      0.7211654731
H       2.4822888077      0.6089639769      1.4706789362
H       3.6606901815      1.8496053661     -0.3742702822
H       4.0363441885      0.3279494786     -1.1695948455
H       4.7550430054      0.7063124951      0.3897717382
14
step 60  E = -11.00249065 Ha  |g|max = 0.000327
C       0.0752745613     -0.4337684788      0.4126185399
C       1.3165324064      0.1877624639     -0.3405193783
C       2.6420482967      0.1170331955      0.5220607001
C       3.8623436293      0.7996404997     -0.2132924285
H       0.2650817529     -1.4695925094      0.6582058163
H      -0.7999309975     -0.3813657549     -0.2207927855
H      -0.1228873263      0.1108355851      1.3254382042
H       1.1015150006      1.2193496594     -0.5827058008
H       1.4664905099     -0.3470137449     -1.2683009230
H       2.8844471035     -0.9175676151      0.7232066837
H       2.4823684286      0.6112325342      1.4700490326
H       3.6609317589      1.8493926777     -0.3755740950
H       4.0365131215      0.3266007053     -1.1695280057
H       4.7551182711      0.7061905630      0.3900893937
14
step 61  E = -11.00249165 Ha  |g|max = 0.000187
C       0.0751324909     -0.4344933523      0.4124583871
C       1.3166170781      0.1876703740     -0.3405335042
C       2.6421251329      0.1176929799      0.5221909441
C       3.8625185749      0.7994327818     -0.2134749475
H       0.2644359508     -1.4710293668      0.6559660598
H      -0.8005635490     -0.3792139190     -0.2204667916
H      -0.1217044540      0.1084405038      1.3267220728
H       1.1005758755      1.2194947022     -0.5820880041
H       1.4670132716     -0.3466316749     -1.2686380736
H       2.8841588972     -0.9167600667      0.7248769854
H       2.4821546150      0.6135647373      1.4700210412
H       3.6612342426      1.8493364676     -0.3768130246
H       4.0369701562      0.3252823316     -1.1696821270
H       4.7551781766      0.7059431319      0.3904161003
14
step 62  E = -11.00249234 Ha  |g|max = 0.000161
C       0.0749279790     -0.4351005850      0.4124556847
C       1.3163390037      0.1875630491     -0.3403999690
C       2.6422689784      0.1183835251      0.5225353299
C       3.8629313864      0.7993274869     -0.2138616863
H       0.2637557819     -1.4716929452      0.6544754066
H      -0.8008125397     -0.3780028048     -0.2199550859
H      -0.1208537168      0.1067758398      1.3273773283
H       1.0998810752      1.2195468812     -0.5816792530
H       1.4674543894     -0.3463038856     -1.2690695513
H       2.8839510115     -0.9161888167      0.7257841678
H       2.4818314959      0.6150052539      1.4698714856
H       3.6616408005      1.8490852764     -0.3776275138
H       4.0374976250      0.3245912191     -1.1694537275
H       4.7550331507      0.7057400376      0.3905026107
14
step 63  E = -11.00249353 Ha  |g|max = 0.000444
C       0.0750154981     -0.4354897726      0.4121607036
C       1.3161380046      0.1874650277     -0.3403355101
C       2.6418645350      0.1196346000      0.5226839048
C       3.8632135220      0.7991153340     -0.2140569012
H       0.2620849728     -1.4732596192      0.6519471258
H      -0.8013327396     -0.3764719543     -0.2186044260
H      -0.1193323804      0.1038749197      1.3285315093
H       1.0985342112      1.2190657028     -0.5808717998
H       1.4681428877     -0.3451508389     -1.2692996542
H       2.8835769806     -0.9146302640      0.7270569201
H       2.4811027259      0.6173325603      1.4693471327
H       3.6629510036      1.8483789711     -0.3791649604
H       4.0389508854      0.3234364790     -1.1689767123
H       4.7549362453      0.7054282121      0.3905380881
14
step 64  E = -11.00249415 Ha  |g|max = 0.000210
C       0.0752299549     -0.4361812218      0.4121161520
C       1.3161473025      0.1875528672     -0.3403105501
C       2.6416017715      0.1202515018      0.5226147340
C       3.8632961361      0.7987025763     -0.2140914392
H       0.2611212340     -1.4739987424      0.6505021576
H      -0.8018391097     -0.3756839527     -0.2179669303
H      -0.1184992962      0.1024735321      1.3293292982
H       1.0977620821      1.2189110775     -0.5804851815
H       1.4684637511     -0.3445298457     -1.2694080651
H       2.8833660810     -0.9136935005      0.7277302449
H       2.4806905461      0.6185774536      1.4690168295
H       3.6637470202      1.8482774129     -0.3800685070
H       4.0397507504      0.3227735711     -1.1687048905
H       4.7550080901      0.7052965326      0.3906816746
14
step 65  E = -11.00249484 Ha  |g|max = 0.000236
C       0.0749658360     -0.4368640761      0.4122748873
C       1.3159048177      0.1876965463     -0.3403170243
C       2.6414358705      0.1208743609      0.5226638502
C       3.8637247277      0.7985654862     -0.2141871723
H       0.2603374550     -1.4754882394      0.6489139645
H      -0.8025232009     -0.3749563106     -0.2173181430
H      -0.1173878352      0.1011408997      1.3302957150
H       1.0967616930      1.2194626959     -0.5802835011
H       1.4686423486     -0.3440458166     -1.2696821702
H       2.8830800855     -0.9127944690      0.7285191340
H       2.4802716305      0.6198228886      1.4683425511
H       3.6649040379      1.8483601039     -0.3811171180
H       4.0404616336      0.3217385876     -1.1684505046
H       4.7552671703      0.7052164967      0.3913011800
14
step 66  E = -11.00249525 Ha  |g|max = 0.000176
C       0.0748581589     -0.4372524600      0.4122729336
C       1.3154166207      0.1880188321     -0.3404122264
C       2.6414242669      0.1213540150      0.5223651666
C       3.8641874121      0.7986807793     -0.2142077126
H       0.2599608126     -1.4763360374      0.6479324611
H      -0.8028941340     -0.3745503755     -0.2168278751
H      -0.1166786633      0.1002606765      1.3308363164
H       1.0962024634      1.2196063553     -0.5801355933
H       1.4686175841     -0.3437719864     -1.2698029524
H       2.8829042879     -0.9124496787      0.7290513279
H       2.4800244196      0.6206673757      1.4680942664
H       3.6657241450      1.8482493534     -0.3817331333
H       4.0408098214      0.3210460055     -1.1681852855
H       4.7552890473      0.7052062324      0.3917080308
14
step 67  E = -11.00249556 Ha  |g|max = 0.000189
C       0.0749483440     -0.4375470446      0.4122477159
C       1.3151902452      0.1880408963     -0.3405790717
C       2.6412721943      0.1217961735      0.5221571737
C       3.8644924729      0.7985533918     -0.2143350949
H       0.2598410202     -1.4765969122      0.6471408341
H      -0.8031540153     -0.3742878440     -0.2163336337
H      -0.1161577779      0.0994014981      1.3311037747
H       1.0957455279      1.2196925077     -0.5800648046
H       1.4683023042     -0.3434749103     -1.2697454017
H       2.8827018697     -0.9121393512      0.7293591420
H       2.4799373155      0.6212790560      1.4678445513
H       3.6664369547      1.8482017884     -0.3821928037
H       4.0410309190      0.3205645014     -1.1677474860
H       4.7552588469      0.7052452855      0.3921008871
14
step 68  E = -11.00249617 Ha  |g|max = 0.000155
C       0.0751305268     -0.4378379925      0.4119875895
C       1.3149531257      0.1883043099     -0.3405440620
C       2.6409790139      0.1223584813      0.5219547327
C       3.8647186163      0.7984234785     -0.2141087633
H       0.2599080110     -1.4770601988      0.6456023836
H      -0.8036085101     -0.3738207861     -0.2152366719
H      -0.1151563522      0.0975658507      1.3316469360
H       1.0947855240      1.2197377535     -0.5799868143
H       1.4674404582     -0.3430601777     -1.2699693310
H       2.8821405609     -0.9111300738      0.7297574879
H       2.4798557773      0.6224773293      1.4671969083
H       3.6679337268      1.8480526994     -0.3831292945
H       4.0416039929      0.3194183282     -1.1671451744
H       4.7551617068      0.7052999335      0.3929299719
14
step 69  E = -11.00249655 Ha  |g|max = 0.000214
C       0.0752450232     -0.4380128008      0.4120234229
C       1.3147884671      0.1886944606     -0.3407930394
C       2.6408401919      0.1230556800      0.5220381160
C       3.8648841063      0.7982056346     -0.2139832204
H       0.2603196840     -1.4775979219      0.6445509836
H      -0.8040734377     -0.3734583045     -0.2147365069
H      -0.1145512623      0.0964411225      1.3323854988
H       1.0941365580      1.2198174674     -0.5799752099
H       1.4668130265     -0.3428815864     -1.2703564716
H       2.8817504733     -0.9106697943      0.7299518716
H       2.4797507552      0.6233426028      1.4668433388
H       3.6688129424      1.8479811924     -0.3837794922
H       4.0421622714      0.3185972775     -1.1667296108
H       4.7549673491      0.7052138360      0.3935162986
14
step 70  E = -11.00249707 Ha  |g|max = 0.000204
C       0.0752982382     -0.4383685925      0.4121045001
C       1.3145217102      0.1889541154     -0.3411582087
C       2.6405419583      0.1236872248      0.5218199632
C       3.8652556973      0.7980845769     -0.2140483647
H       0.2610901507     -1.4783005479      0.6430513211
H      -0.8045729152     -0.3729462120     -0.2140529670
H      -0.1137517859      0.0949713279      1.3336135045
H       1.0932157331      1.2202714724     -0.5800935227
H       1.4660158682     -0.3425696778     -1.2708697674
H       2.8811513499     -0.9099608204      0.7301846349
H       2.4794870980      0.6247361400      1.4667504828
H       3.6699000120      1.8477346210     -0.3846594188
H       4.0430189158      0.3174598462     -1.1660566383
H       4.7546740757      0.7049752947      0.3943705726
14
step 71  E = -11.00249749 Ha  |g|max = 0.000185
C       0.0753103728     -0.4386536057      0.4123570671
C       1.3137433019      0.1892685232     -0.3412603137
C       2.6401335987      0.1242465656      0.5216090309
C       3.8655576474      0.7979115349     -0.2140620403
H       0.2617685528     -1.4785768141      0.6417908496
H      -0.8045020531     -0.3726164000     -0.2132916830
H      -0.1130651726      0.0936696022      1.3343420865
H       1.0926244556      1.2206518513     -0.5803241271
H       1.4656543266     -0.3421643996     -1.2711431693
H       2.8806338348     -0.9093742579      0.7304001231
H       2.4791531704      0.6256604838      1.4664716565
H       3.6704732977      1.8475189678     -0.3853930592
H       4.0438695199      0.3165417690     -1.1656221387
H       4.7544912201      0.7046448716      0.3950818984
14
step 72  E = -11.00249790 Ha  |g|max = 0.000186
C       0.0756212603     -0.4388253898      0.4125393779
C       1.3134389276      0.1898675666     -0.3414495006
C       2.6395276118      0.1249199140      0.5213512875
C       3.8655879208      0.7975448827     -0.2139953094
H       0.2624780901     -1.4790001097      0.6405768455
H      -0.8045693728     -0.3723767677     -0.2125248375
H      -0.1123951689      0.0923678765      1.3352043358
H       1.0920090434      1.2209489268     -0.5805967111
H       1.4653650473     -0.3415244136     -1.2710506717
H       2.8799949292     -0.9087104535      0.7306508033
H       2.4787226386      0.6263846470      1.4658458203
H       3.6709061154      1.8472344737     -0.3861840069
H       4.0448524917      0.3156306410     -1.1652335016
H       4.7543065038      0.7042668194      0.3958223416
14
step 73  E = -11.00249817 Ha  |g|max = 0.000163
C       0.0759245221     -0.4389165840      0.4125145797
C       1.3133638650      0.1902989145     -0.3414538930
C       2.6393660576      0.1250902688      0.5210861399
C       3.8657057689      0.7973736638     -0.2139964611
H       0.2629444882     -1.4793323210      0.6398454857
H      -0.8047085436     -0.3722699164     -0.2120244601
H      -0.1119533851      0.0915634100      1.3358517558
H       1.0915523915      1.2212898527     -0.5808029476
H       1.4652477914     -0.3411167495     -1.2710211260
H       2.8794373991     -0.9081868820      0.7307993943
H       2.4783411971      0.6269203764      1.4655247678
H       3.6711661270      1.8468865010     -0.3866911042
H       4.0454568405      0.3150764494     -1.1649115623
H       4.7540014959      0.7040515783      0.3962357644
14
step 74  E = -11.00249836 Ha  |g|max = 0.000090
C       0.0760478092     -0.4390254605      0.4126049180
C       1.3133302146      0.1906388263     -0.3415514905
C       2.6394466744      0.1254447056      0.5210443033
C       3.8658653673      0.7971872598     -0.2140934937
H       0.2632998332     -1.4795276565      0.6393238641
H      -0.8048374478     -0.3722307057     -0.2116268393
H      -0.1115505665      0.0909120788      1.3362394785
H       1.0911920735      1.2216908296     -0.5809262097
H       1.4652367430     -0.3408275037     -1.2710871485
H       2.8789390163     -0.9080687163      0.7309368581
H       2.4780131934      0.6273269756      1.4652551568
H       3.6713331337      1.8465671631     -0.3870716920
H       4.0458592808      0.3146824058     -1.1646333166
H       4.7536706731      0.7039583213      0.3965419909
